<UPF version="2.0.1">
  <PP_INFO>

 This pseudopotential file has been produced using the code
 ONCVPSP  (Optimized Norm-Conservinng Vanderbilt PSeudopotential)
 scalar-relativistic version 3.2.2 08/07/2015 by D. R. Hamann
 The code is available through a link at URL www.mat-simresearch.com.
 Documentation with the package provides a full discription of the
 input data below.


 While it is not required under the terms of the GNU GPL, it is
 suggested that you cite D. R. Hamann, Phys. Rev. B 88, 085117 (2013)
 in any publication using these pseudopotentials.

    <PP_INPUTFILE>
# ATOM AND REFERENCE CONFIGURATION
# atsym  z   nc   nv     iexc    psfile
  Al 13.00    1    4       3      upf
#
#   n    l    f        energy (Ha)
    1    0    2.00
    2    0    2.00
    2    1    6.00
    3    0    2.00
    3    1    1.00
#
# PSEUDOPOTENTIAL AND OPTIMIZATION
# lmax
    1
#
#   l,   rc,     ep,   ncon, nbas, qcut
    0    1.31   -3.95    5    8   10.30
    1    2.41   -2.56    5    8    7.02
#
# LOCAL POTENTIAL
# lloc, lpopt,  rc(5),   dvloc0
    4    5      0.94       0.00
#
# VANDERBILT-KLEINMAN-BYLANDER PROJECTORs
# l, nproj, debl
    0    2    3.6624
    1    2    2.4594
#
# MODEL CORE CHARGE
# icmod, fcfact
    0    0.00
#
# LOG DERIVATIVE ANALYSIS
# epsh1, epsh2, depsh
   -5.00    3.00    0.02
#
# OUTPUT GRID
# rlmax, drl
    6.00    0.01
#
# TEST CONFIGURATIONS
# ncnf
    0
# nvcnf
#   n    l    f
    </PP_INPUTFILE>
  </PP_INFO>
  <!--                               -->
  <!-- END OF HUMAN READABLE SECTION -->
  <!--                               -->
    <PP_HEADER
       generated="Generated using ONCVPSP code by D. R. Hamann"
       author="anonymous"
       date="160823"
       comment=""
       element="Al"
       pseudo_type="NC"
       relativistic="scalar"
       is_ultrasoft="F"
       is_paw="F"
       is_coulomb="F"
       has_so="F"
       has_wfc="F"
       has_gipaw="F"
       core_correction="F"
       functional="PZ"
       z_valence="   11.00"
       total_psenergy="  -1.37971709034E+02"
       wfc_cutoff="   5.00000000000E+01"
       r_cut="3.20"
       l_max="1"
       l_local="-1"
       mesh_size="  1854"
       number_of_wfc="4"
       number_of_proj="4"/>
 <PP_MESH>
   <PP_R type="real"  size="1854" columns="8">
    0.0000    0.0100    0.0200    0.0300    0.0400    0.0500    0.0600    0.0700
    0.0800    0.0900    0.1000    0.1100    0.1200    0.1300    0.1400    0.1500
    0.1600    0.1700    0.1800    0.1900    0.2000    0.2100    0.2200    0.2300
    0.2400    0.2500    0.2600    0.2700    0.2800    0.2900    0.3000    0.3100
    0.3200    0.3300    0.3400    0.3500    0.3600    0.3700    0.3800    0.3900
    0.4000    0.4100    0.4200    0.4300    0.4400    0.4500    0.4600    0.4700
    0.4800    0.4900    0.5000    0.5100    0.5200    0.5300    0.5400    0.5500
    0.5600    0.5700    0.5800    0.5900    0.6000    0.6100    0.6200    0.6300
    0.6400    0.6500    0.6600    0.6700    0.6800    0.6900    0.7000    0.7100
    0.7200    0.7300    0.7400    0.7500    0.7600    0.7700    0.7800    0.7900
    0.8000    0.8100    0.8200    0.8300    0.8400    0.8500    0.8600    0.8700
    0.8800    0.8900    0.9000    0.9100    0.9200    0.9300    0.9400    0.9500
    0.9600    0.9700    0.9800    0.9900    1.0000    1.0100    1.0200    1.0300
    1.0400    1.0500    1.0600    1.0700    1.0800    1.0900    1.1000    1.1100
    1.1200    1.1300    1.1400    1.1500    1.1600    1.1700    1.1800    1.1900
    1.2000    1.2100    1.2200    1.2300    1.2400    1.2500    1.2600    1.2700
    1.2800    1.2900    1.3000    1.3100    1.3200    1.3300    1.3400    1.3500
    1.3600    1.3700    1.3800    1.3900    1.4000    1.4100    1.4200    1.4300
    1.4400    1.4500    1.4600    1.4700    1.4800    1.4900    1.5000    1.5100
    1.5200    1.5300    1.5400    1.5500    1.5600    1.5700    1.5800    1.5900
    1.6000    1.6100    1.6200    1.6300    1.6400    1.6500    1.6600    1.6700
    1.6800    1.6900    1.7000    1.7100    1.7200    1.7300    1.7400    1.7500
    1.7600    1.7700    1.7800    1.7900    1.8000    1.8100    1.8200    1.8300
    1.8400    1.8500    1.8600    1.8700    1.8800    1.8900    1.9000    1.9100
    1.9200    1.9300    1.9400    1.9500    1.9600    1.9700    1.9800    1.9900
    2.0000    2.0100    2.0200    2.0300    2.0400    2.0500    2.0600    2.0700
    2.0800    2.0900    2.1000    2.1100    2.1200    2.1300    2.1400    2.1500
    2.1600    2.1700    2.1800    2.1900    2.2000    2.2100    2.2200    2.2300
    2.2400    2.2500    2.2600    2.2700    2.2800    2.2900    2.3000    2.3100
    2.3200    2.3300    2.3400    2.3500    2.3600    2.3700    2.3800    2.3900
    2.4000    2.4100    2.4200    2.4300    2.4400    2.4500    2.4600    2.4700
    2.4800    2.4900    2.5000    2.5100    2.5200    2.5300    2.5400    2.5500
    2.5600    2.5700    2.5800    2.5900    2.6000    2.6100    2.6200    2.6300
    2.6400    2.6500    2.6600    2.6700    2.6800    2.6900    2.7000    2.7100
    2.7200    2.7300    2.7400    2.7500    2.7600    2.7700    2.7800    2.7900
    2.8000    2.8100    2.8200    2.8300    2.8400    2.8500    2.8600    2.8700
    2.8800    2.8900    2.9000    2.9100    2.9200    2.9300    2.9400    2.9500
    2.9600    2.9700    2.9800    2.9900    3.0000    3.0100    3.0200    3.0300
    3.0400    3.0500    3.0600    3.0700    3.0800    3.0900    3.1000    3.1100
    3.1200    3.1300    3.1400    3.1500    3.1600    3.1700    3.1800    3.1900
    3.2000    3.2100    3.2200    3.2300    3.2400    3.2500    3.2600    3.2700
    3.2800    3.2900    3.3000    3.3100    3.3200    3.3300    3.3400    3.3500
    3.3600    3.3700    3.3800    3.3900    3.4000    3.4100    3.4200    3.4300
    3.4400    3.4500    3.4600    3.4700    3.4800    3.4900    3.5000    3.5100
    3.5200    3.5300    3.5400    3.5500    3.5600    3.5700    3.5800    3.5900
    3.6000    3.6100    3.6200    3.6300    3.6400    3.6500    3.6600    3.6700
    3.6800    3.6900    3.7000    3.7100    3.7200    3.7300    3.7400    3.7500
    3.7600    3.7700    3.7800    3.7900    3.8000    3.8100    3.8200    3.8300
    3.8400    3.8500    3.8600    3.8700    3.8800    3.8900    3.9000    3.9100
    3.9200    3.9300    3.9400    3.9500    3.9600    3.9700    3.9800    3.9900
    4.0000    4.0100    4.0200    4.0300    4.0400    4.0500    4.0600    4.0700
    4.0800    4.0900    4.1000    4.1100    4.1200    4.1300    4.1400    4.1500
    4.1600    4.1700    4.1800    4.1900    4.2000    4.2100    4.2200    4.2300
    4.2400    4.2500    4.2600    4.2700    4.2800    4.2900    4.3000    4.3100
    4.3200    4.3300    4.3400    4.3500    4.3600    4.3700    4.3800    4.3900
    4.4000    4.4100    4.4200    4.4300    4.4400    4.4500    4.4600    4.4700
    4.4800    4.4900    4.5000    4.5100    4.5200    4.5300    4.5400    4.5500
    4.5600    4.5700    4.5800    4.5900    4.6000    4.6100    4.6200    4.6300
    4.6400    4.6500    4.6600    4.6700    4.6800    4.6900    4.7000    4.7100
    4.7200    4.7300    4.7400    4.7500    4.7600    4.7700    4.7800    4.7900
    4.8000    4.8100    4.8200    4.8300    4.8400    4.8500    4.8600    4.8700
    4.8800    4.8900    4.9000    4.9100    4.9200    4.9300    4.9400    4.9500
    4.9600    4.9700    4.9800    4.9900    5.0000    5.0100    5.0200    5.0300
    5.0400    5.0500    5.0600    5.0700    5.0800    5.0900    5.1000    5.1100
    5.1200    5.1300    5.1400    5.1500    5.1600    5.1700    5.1800    5.1900
    5.2000    5.2100    5.2200    5.2300    5.2400    5.2500    5.2600    5.2700
    5.2800    5.2900    5.3000    5.3100    5.3200    5.3300    5.3400    5.3500
    5.3600    5.3700    5.3800    5.3900    5.4000    5.4100    5.4200    5.4300
    5.4400    5.4500    5.4600    5.4700    5.4800    5.4900    5.5000    5.5100
    5.5200    5.5300    5.5400    5.5500    5.5600    5.5700    5.5800    5.5900
    5.6000    5.6100    5.6200    5.6300    5.6400    5.6500    5.6600    5.6700
    5.6800    5.6900    5.7000    5.7100    5.7200    5.7300    5.7400    5.7500
    5.7600    5.7700    5.7800    5.7900    5.8000    5.8100    5.8200    5.8300
    5.8400    5.8500    5.8600    5.8700    5.8800    5.8900    5.9000    5.9100
    5.9200    5.9300    5.9400    5.9500    5.9600    5.9700    5.9800    5.9900
    6.0000    6.0100    6.0200    6.0300    6.0400    6.0500    6.0600    6.0700
    6.0800    6.0900    6.1000    6.1100    6.1200    6.1300    6.1400    6.1500
    6.1600    6.1700    6.1800    6.1900    6.2000    6.2100    6.2200    6.2300
    6.2400    6.2500    6.2600    6.2700    6.2800    6.2900    6.3000    6.3100
    6.3200    6.3300    6.3400    6.3500    6.3600    6.3700    6.3800    6.3900
    6.4000    6.4100    6.4200    6.4300    6.4400    6.4500    6.4600    6.4700
    6.4800    6.4900    6.5000    6.5100    6.5200    6.5300    6.5400    6.5500
    6.5600    6.5700    6.5800    6.5900    6.6000    6.6100    6.6200    6.6300
    6.6400    6.6500    6.6600    6.6700    6.6800    6.6900    6.7000    6.7100
    6.7200    6.7300    6.7400    6.7500    6.7600    6.7700    6.7800    6.7900
    6.8000    6.8100    6.8200    6.8300    6.8400    6.8500    6.8600    6.8700
    6.8800    6.8900    6.9000    6.9100    6.9200    6.9300    6.9400    6.9500
    6.9600    6.9700    6.9800    6.9900    7.0000    7.0100    7.0200    7.0300
    7.0400    7.0500    7.0600    7.0700    7.0800    7.0900    7.1000    7.1100
    7.1200    7.1300    7.1400    7.1500    7.1600    7.1700    7.1800    7.1900
    7.2000    7.2100    7.2200    7.2300    7.2400    7.2500    7.2600    7.2700
    7.2800    7.2900    7.3000    7.3100    7.3200    7.3300    7.3400    7.3500
    7.3600    7.3700    7.3800    7.3900    7.4000    7.4100    7.4200    7.4300
    7.4400    7.4500    7.4600    7.4700    7.4800    7.4900    7.5000    7.5100
    7.5200    7.5300    7.5400    7.5500    7.5600    7.5700    7.5800    7.5900
    7.6000    7.6100    7.6200    7.6300    7.6400    7.6500    7.6600    7.6700
    7.6800    7.6900    7.7000    7.7100    7.7200    7.7300    7.7400    7.7500
    7.7600    7.7700    7.7800    7.7900    7.8000    7.8100    7.8200    7.8300
    7.8400    7.8500    7.8600    7.8700    7.8800    7.8900    7.9000    7.9100
    7.9200    7.9300    7.9400    7.9500    7.9600    7.9700    7.9800    7.9900
    8.0000    8.0100    8.0200    8.0300    8.0400    8.0500    8.0600    8.0700
    8.0800    8.0900    8.1000    8.1100    8.1200    8.1300    8.1400    8.1500
    8.1600    8.1700    8.1800    8.1900    8.2000    8.2100    8.2200    8.2300
    8.2400    8.2500    8.2600    8.2700    8.2800    8.2900    8.3000    8.3100
    8.3200    8.3300    8.3400    8.3500    8.3600    8.3700    8.3800    8.3900
    8.4000    8.4100    8.4200    8.4300    8.4400    8.4500    8.4600    8.4700
    8.4800    8.4900    8.5000    8.5100    8.5200    8.5300    8.5400    8.5500
    8.5600    8.5700    8.5800    8.5900    8.6000    8.6100    8.6200    8.6300
    8.6400    8.6500    8.6600    8.6700    8.6800    8.6900    8.7000    8.7100
    8.7200    8.7300    8.7400    8.7500    8.7600    8.7700    8.7800    8.7900
    8.8000    8.8100    8.8200    8.8300    8.8400    8.8500    8.8600    8.8700
    8.8800    8.8900    8.9000    8.9100    8.9200    8.9300    8.9400    8.9500
    8.9600    8.9700    8.9800    8.9900    9.0000    9.0100    9.0200    9.0300
    9.0400    9.0500    9.0600    9.0700    9.0800    9.0900    9.1000    9.1100
    9.1200    9.1300    9.1400    9.1500    9.1600    9.1700    9.1800    9.1900
    9.2000    9.2100    9.2200    9.2300    9.2400    9.2500    9.2600    9.2700
    9.2800    9.2900    9.3000    9.3100    9.3200    9.3300    9.3400    9.3500
    9.3600    9.3700    9.3800    9.3900    9.4000    9.4100    9.4200    9.4300
    9.4400    9.4500    9.4600    9.4700    9.4800    9.4900    9.5000    9.5100
    9.5200    9.5300    9.5400    9.5500    9.5600    9.5700    9.5800    9.5900
    9.6000    9.6100    9.6200    9.6300    9.6400    9.6500    9.6600    9.6700
    9.6800    9.6900    9.7000    9.7100    9.7200    9.7300    9.7400    9.7500
    9.7600    9.7700    9.7800    9.7900    9.8000    9.8100    9.8200    9.8300
    9.8400    9.8500    9.8600    9.8700    9.8800    9.8900    9.9000    9.9100
    9.9200    9.9300    9.9400    9.9500    9.9600    9.9700    9.9800    9.9900
   10.0000   10.0100   10.0200   10.0300   10.0400   10.0500   10.0600   10.0700
   10.0800   10.0900   10.1000   10.1100   10.1200   10.1300   10.1400   10.1500
   10.1600   10.1700   10.1800   10.1900   10.2000   10.2100   10.2200   10.2300
   10.2400   10.2500   10.2600   10.2700   10.2800   10.2900   10.3000   10.3100
   10.3200   10.3300   10.3400   10.3500   10.3600   10.3700   10.3800   10.3900
   10.4000   10.4100   10.4200   10.4300   10.4400   10.4500   10.4600   10.4700
   10.4800   10.4900   10.5000   10.5100   10.5200   10.5300   10.5400   10.5500
   10.5600   10.5700   10.5800   10.5900   10.6000   10.6100   10.6200   10.6300
   10.6400   10.6500   10.6600   10.6700   10.6800   10.6900   10.7000   10.7100
   10.7200   10.7300   10.7400   10.7500   10.7600   10.7700   10.7800   10.7900
   10.8000   10.8100   10.8200   10.8300   10.8400   10.8500   10.8600   10.8700
   10.8800   10.8900   10.9000   10.9100   10.9200   10.9300   10.9400   10.9500
   10.9600   10.9700   10.9800   10.9900   11.0000   11.0100   11.0200   11.0300
   11.0400   11.0500   11.0600   11.0700   11.0800   11.0900   11.1000   11.1100
   11.1200   11.1300   11.1400   11.1500   11.1600   11.1700   11.1800   11.1900
   11.2000   11.2100   11.2200   11.2300   11.2400   11.2500   11.2600   11.2700
   11.2800   11.2900   11.3000   11.3100   11.3200   11.3300   11.3400   11.3500
   11.3600   11.3700   11.3800   11.3900   11.4000   11.4100   11.4200   11.4300
   11.4400   11.4500   11.4600   11.4700   11.4800   11.4900   11.5000   11.5100
   11.5200   11.5300   11.5400   11.5500   11.5600   11.5700   11.5800   11.5900
   11.6000   11.6100   11.6200   11.6300   11.6400   11.6500   11.6600   11.6700
   11.6800   11.6900   11.7000   11.7100   11.7200   11.7300   11.7400   11.7500
   11.7600   11.7700   11.7800   11.7900   11.8000   11.8100   11.8200   11.8300
   11.8400   11.8500   11.8600   11.8700   11.8800   11.8900   11.9000   11.9100
   11.9200   11.9300   11.9400   11.9500   11.9600   11.9700   11.9800   11.9900
   12.0000   12.0100   12.0200   12.0300   12.0400   12.0500   12.0600   12.0700
   12.0800   12.0900   12.1000   12.1100   12.1200   12.1300   12.1400   12.1500
   12.1600   12.1700   12.1800   12.1900   12.2000   12.2100   12.2200   12.2300
   12.2400   12.2500   12.2600   12.2700   12.2800   12.2900   12.3000   12.3100
   12.3200   12.3300   12.3400   12.3500   12.3600   12.3700   12.3800   12.3900
   12.4000   12.4100   12.4200   12.4300   12.4400   12.4500   12.4600   12.4700
   12.4800   12.4900   12.5000   12.5100   12.5200   12.5300   12.5400   12.5500
   12.5600   12.5700   12.5800   12.5900   12.6000   12.6100   12.6200   12.6300
   12.6400   12.6500   12.6600   12.6700   12.6800   12.6900   12.7000   12.7100
   12.7200   12.7300   12.7400   12.7500   12.7600   12.7700   12.7800   12.7900
   12.8000   12.8100   12.8200   12.8300   12.8400   12.8500   12.8600   12.8700
   12.8800   12.8900   12.9000   12.9100   12.9200   12.9300   12.9400   12.9500
   12.9600   12.9700   12.9800   12.9900   13.0000   13.0100   13.0200   13.0300
   13.0400   13.0500   13.0600   13.0700   13.0800   13.0900   13.1000   13.1100
   13.1200   13.1300   13.1400   13.1500   13.1600   13.1700   13.1800   13.1900
   13.2000   13.2100   13.2200   13.2300   13.2400   13.2500   13.2600   13.2700
   13.2800   13.2900   13.3000   13.3100   13.3200   13.3300   13.3400   13.3500
   13.3600   13.3700   13.3800   13.3900   13.4000   13.4100   13.4200   13.4300
   13.4400   13.4500   13.4600   13.4700   13.4800   13.4900   13.5000   13.5100
   13.5200   13.5300   13.5400   13.5500   13.5600   13.5700   13.5800   13.5900
   13.6000   13.6100   13.6200   13.6300   13.6400   13.6500   13.6600   13.6700
   13.6800   13.6900   13.7000   13.7100   13.7200   13.7300   13.7400   13.7500
   13.7600   13.7700   13.7800   13.7900   13.8000   13.8100   13.8200   13.8300
   13.8400   13.8500   13.8600   13.8700   13.8800   13.8900   13.9000   13.9100
   13.9200   13.9300   13.9400   13.9500   13.9600   13.9700   13.9800   13.9900
   14.0000   14.0100   14.0200   14.0300   14.0400   14.0500   14.0600   14.0700
   14.0800   14.0900   14.1000   14.1100   14.1200   14.1300   14.1400   14.1500
   14.1600   14.1700   14.1800   14.1900   14.2000   14.2100   14.2200   14.2300
   14.2400   14.2500   14.2600   14.2700   14.2800   14.2900   14.3000   14.3100
   14.3200   14.3300   14.3400   14.3500   14.3600   14.3700   14.3800   14.3900
   14.4000   14.4100   14.4200   14.4300   14.4400   14.4500   14.4600   14.4700
   14.4800   14.4900   14.5000   14.5100   14.5200   14.5300   14.5400   14.5500
   14.5600   14.5700   14.5800   14.5900   14.6000   14.6100   14.6200   14.6300
   14.6400   14.6500   14.6600   14.6700   14.6800   14.6900   14.7000   14.7100
   14.7200   14.7300   14.7400   14.7500   14.7600   14.7700   14.7800   14.7900
   14.8000   14.8100   14.8200   14.8300   14.8400   14.8500   14.8600   14.8700
   14.8800   14.8900   14.9000   14.9100   14.9200   14.9300   14.9400   14.9500
   14.9600   14.9700   14.9800   14.9900   15.0000   15.0100   15.0200   15.0300
   15.0400   15.0500   15.0600   15.0700   15.0800   15.0900   15.1000   15.1100
   15.1200   15.1300   15.1400   15.1500   15.1600   15.1700   15.1800   15.1900
   15.2000   15.2100   15.2200   15.2300   15.2400   15.2500   15.2600   15.2700
   15.2800   15.2900   15.3000   15.3100   15.3200   15.3300   15.3400   15.3500
   15.3600   15.3700   15.3800   15.3900   15.4000   15.4100   15.4200   15.4300
   15.4400   15.4500   15.4600   15.4700   15.4800   15.4900   15.5000   15.5100
   15.5200   15.5300   15.5400   15.5500   15.5600   15.5700   15.5800   15.5900
   15.6000   15.6100   15.6200   15.6300   15.6400   15.6500   15.6600   15.6700
   15.6800   15.6900   15.7000   15.7100   15.7200   15.7300   15.7400   15.7500
   15.7600   15.7700   15.7800   15.7900   15.8000   15.8100   15.8200   15.8300
   15.8400   15.8500   15.8600   15.8700   15.8800   15.8900   15.9000   15.9100
   15.9200   15.9300   15.9400   15.9500   15.9600   15.9700   15.9800   15.9900
   16.0000   16.0100   16.0200   16.0300   16.0400   16.0500   16.0600   16.0700
   16.0800   16.0900   16.1000   16.1100   16.1200   16.1300   16.1400   16.1500
   16.1600   16.1700   16.1800   16.1900   16.2000   16.2100   16.2200   16.2300
   16.2400   16.2500   16.2600   16.2700   16.2800   16.2900   16.3000   16.3100
   16.3200   16.3300   16.3400   16.3500   16.3600   16.3700   16.3800   16.3900
   16.4000   16.4100   16.4200   16.4300   16.4400   16.4500   16.4600   16.4700
   16.4800   16.4900   16.5000   16.5100   16.5200   16.5300   16.5400   16.5500
   16.5600   16.5700   16.5800   16.5900   16.6000   16.6100   16.6200   16.6300
   16.6400   16.6500   16.6600   16.6700   16.6800   16.6900   16.7000   16.7100
   16.7200   16.7300   16.7400   16.7500   16.7600   16.7700   16.7800   16.7900
   16.8000   16.8100   16.8200   16.8300   16.8400   16.8500   16.8600   16.8700
   16.8800   16.8900   16.9000   16.9100   16.9200   16.9300   16.9400   16.9500
   16.9600   16.9700   16.9800   16.9900   17.0000   17.0100   17.0200   17.0300
   17.0400   17.0500   17.0600   17.0700   17.0800   17.0900   17.1000   17.1100
   17.1200   17.1300   17.1400   17.1500   17.1600   17.1700   17.1800   17.1900
   17.2000   17.2100   17.2200   17.2300   17.2400   17.2500   17.2600   17.2700
   17.2800   17.2900   17.3000   17.3100   17.3200   17.3300   17.3400   17.3500
   17.3600   17.3700   17.3800   17.3900   17.4000   17.4100   17.4200   17.4300
   17.4400   17.4500   17.4600   17.4700   17.4800   17.4900   17.5000   17.5100
   17.5200   17.5300   17.5400   17.5500   17.5600   17.5700   17.5800   17.5900
   17.6000   17.6100   17.6200   17.6300   17.6400   17.6500   17.6600   17.6700
   17.6800   17.6900   17.7000   17.7100   17.7200   17.7300   17.7400   17.7500
   17.7600   17.7700   17.7800   17.7900   17.8000   17.8100   17.8200   17.8300
   17.8400   17.8500   17.8600   17.8700   17.8800   17.8900   17.9000   17.9100
   17.9200   17.9300   17.9400   17.9500   17.9600   17.9700   17.9800   17.9900
   18.0000   18.0100   18.0200   18.0300   18.0400   18.0500   18.0600   18.0700
   18.0800   18.0900   18.1000   18.1100   18.1200   18.1300   18.1400   18.1500
   18.1600   18.1700   18.1800   18.1900   18.2000   18.2100   18.2200   18.2300
   18.2400   18.2500   18.2600   18.2700   18.2800   18.2900   18.3000   18.3100
   18.3200   18.3300   18.3400   18.3500   18.3600   18.3700   18.3800   18.3900
   18.4000   18.4100   18.4200   18.4300   18.4400   18.4500   18.4600   18.4700
   18.4800   18.4900   18.5000   18.5100   18.5200   18.5300
   </PP_R>
   <PP_RAB type="real"  size="1854" columns="8">
    0.0100    0.0100    0.0100    0.0100    0.0100    0.0100    0.0100    0.0100
    0.0100    0.0100    0.0100    0.0100    0.0100    0.0100    0.0100    0.0100
    0.0100    0.0100    0.0100    0.0100    0.0100    0.0100    0.0100    0.0100
    0.0100    0.0100    0.0100    0.0100    0.0100    0.0100    0.0100    0.0100
    0.0100    0.0100    0.0100    0.0100    0.0100    0.0100    0.0100    0.0100
    0.0100    0.0100    0.0100    0.0100    0.0100    0.0100    0.0100    0.0100
    0.0100    0.0100    0.0100    0.0100    0.0100    0.0100    0.0100    0.0100
    0.0100    0.0100    0.0100    0.0100    0.0100    0.0100    0.0100    0.0100
    0.0100    0.0100    0.0100    0.0100    0.0100    0.0100    0.0100    0.0100
    0.0100    0.0100    0.0100    0.0100    0.0100    0.0100    0.0100    0.0100
    0.0100    0.0100    0.0100    0.0100    0.0100    0.0100    0.0100    0.0100
    0.0100    0.0100    0.0100    0.0100    0.0100    0.0100    0.0100    0.0100
    0.0100    0.0100    0.0100    0.0100    0.0100    0.0100    0.0100    0.0100
    0.0100    0.0100    0.0100    0.0100    0.0100    0.0100    0.0100    0.0100
    0.0100    0.0100    0.0100    0.0100    0.0100    0.0100    0.0100    0.0100
    0.0100    0.0100    0.0100    0.0100    0.0100    0.0100    0.0100    0.0100
    0.0100    0.0100    0.0100    0.0100    0.0100    0.0100    0.0100    0.0100
    0.0100    0.0100    0.0100    0.0100    0.0100    0.0100    0.0100    0.0100
    0.0100    0.0100    0.0100    0.0100    0.0100    0.0100    0.0100    0.0100
    0.0100    0.0100    0.0100    0.0100    0.0100    0.0100    0.0100    0.0100
    0.0100    0.0100    0.0100    0.0100    0.0100    0.0100    0.0100    0.0100
    0.0100    0.0100    0.0100    0.0100    0.0100    0.0100    0.0100    0.0100
    0.0100    0.0100    0.0100    0.0100    0.0100    0.0100    0.0100    0.0100
    0.0100    0.0100    0.0100    0.0100    0.0100    0.0100    0.0100    0.0100
    0.0100    0.0100    0.0100    0.0100    0.0100    0.0100    0.0100    0.0100
    0.0100    0.0100    0.0100    0.0100    0.0100    0.0100    0.0100    0.0100
    0.0100    0.0100    0.0100    0.0100    0.0100    0.0100    0.0100    0.0100
    0.0100    0.0100    0.0100    0.0100    0.0100    0.0100    0.0100    0.0100
    0.0100    0.0100    0.0100    0.0100    0.0100    0.0100    0.0100    0.0100
    0.0100    0.0100    0.0100    0.0100    0.0100    0.0100    0.0100    0.0100
    0.0100    0.0100    0.0100    0.0100    0.0100    0.0100    0.0100    0.0100
    0.0100    0.0100    0.0100    0.0100    0.0100    0.0100    0.0100    0.0100
    0.0100    0.0100    0.0100    0.0100    0.0100    0.0100    0.0100    0.0100
    0.0100    0.0100    0.0100    0.0100    0.0100    0.0100    0.0100    0.0100
    0.0100    0.0100    0.0100    0.0100    0.0100    0.0100    0.0100    0.0100
    0.0100    0.0100    0.0100    0.0100    0.0100    0.0100    0.0100    0.0100
    0.0100    0.0100    0.0100    0.0100    0.0100    0.0100    0.0100    0.0100
    0.0100    0.0100    0.0100    0.0100    0.0100    0.0100    0.0100    0.0100
    0.0100    0.0100    0.0100    0.0100    0.0100    0.0100    0.0100    0.0100
    0.0100    0.0100    0.0100    0.0100    0.0100    0.0100    0.0100    0.0100
    0.0100    0.0100    0.0100    0.0100    0.0100    0.0100    0.0100    0.0100
    0.0100    0.0100    0.0100    0.0100    0.0100    0.0100    0.0100    0.0100
    0.0100    0.0100    0.0100    0.0100    0.0100    0.0100    0.0100    0.0100
    0.0100    0.0100    0.0100    0.0100    0.0100    0.0100    0.0100    0.0100
    0.0100    0.0100    0.0100    0.0100    0.0100    0.0100    0.0100    0.0100
    0.0100    0.0100    0.0100    0.0100    0.0100    0.0100    0.0100    0.0100
    0.0100    0.0100    0.0100    0.0100    0.0100    0.0100    0.0100    0.0100
    0.0100    0.0100    0.0100    0.0100    0.0100    0.0100    0.0100    0.0100
    0.0100    0.0100    0.0100    0.0100    0.0100    0.0100    0.0100    0.0100
    0.0100    0.0100    0.0100    0.0100    0.0100    0.0100    0.0100    0.0100
    0.0100    0.0100    0.0100    0.0100    0.0100    0.0100    0.0100    0.0100
    0.0100    0.0100    0.0100    0.0100    0.0100    0.0100    0.0100    0.0100
    0.0100    0.0100    0.0100    0.0100    0.0100    0.0100    0.0100    0.0100
    0.0100    0.0100    0.0100    0.0100    0.0100    0.0100    0.0100    0.0100
    0.0100    0.0100    0.0100    0.0100    0.0100    0.0100    0.0100    0.0100
    0.0100    0.0100    0.0100    0.0100    0.0100    0.0100    0.0100    0.0100
    0.0100    0.0100    0.0100    0.0100    0.0100    0.0100    0.0100    0.0100
    0.0100    0.0100    0.0100    0.0100    0.0100    0.0100    0.0100    0.0100
    0.0100    0.0100    0.0100    0.0100    0.0100    0.0100    0.0100    0.0100
    0.0100    0.0100    0.0100    0.0100    0.0100    0.0100    0.0100    0.0100
    0.0100    0.0100    0.0100    0.0100    0.0100    0.0100    0.0100    0.0100
    0.0100    0.0100    0.0100    0.0100    0.0100    0.0100    0.0100    0.0100
    0.0100    0.0100    0.0100    0.0100    0.0100    0.0100    0.0100    0.0100
    0.0100    0.0100    0.0100    0.0100    0.0100    0.0100    0.0100    0.0100
    0.0100    0.0100    0.0100    0.0100    0.0100    0.0100    0.0100    0.0100
    0.0100    0.0100    0.0100    0.0100    0.0100    0.0100    0.0100    0.0100
    0.0100    0.0100    0.0100    0.0100    0.0100    0.0100    0.0100    0.0100
    0.0100    0.0100    0.0100    0.0100    0.0100    0.0100    0.0100    0.0100
    0.0100    0.0100    0.0100    0.0100    0.0100    0.0100    0.0100    0.0100
    0.0100    0.0100    0.0100    0.0100    0.0100    0.0100    0.0100    0.0100
    0.0100    0.0100    0.0100    0.0100    0.0100    0.0100    0.0100    0.0100
    0.0100    0.0100    0.0100    0.0100    0.0100    0.0100    0.0100    0.0100
    0.0100    0.0100    0.0100    0.0100    0.0100    0.0100    0.0100    0.0100
    0.0100    0.0100    0.0100    0.0100    0.0100    0.0100    0.0100    0.0100
    0.0100    0.0100    0.0100    0.0100    0.0100    0.0100    0.0100    0.0100
    0.0100    0.0100    0.0100    0.0100    0.0100    0.0100    0.0100    0.0100
    0.0100    0.0100    0.0100    0.0100    0.0100    0.0100    0.0100    0.0100
    0.0100    0.0100    0.0100    0.0100    0.0100    0.0100    0.0100    0.0100
    0.0100    0.0100    0.0100    0.0100    0.0100    0.0100    0.0100    0.0100
    0.0100    0.0100    0.0100    0.0100    0.0100    0.0100    0.0100    0.0100
    0.0100    0.0100    0.0100    0.0100    0.0100    0.0100    0.0100    0.0100
    0.0100    0.0100    0.0100    0.0100    0.0100    0.0100    0.0100    0.0100
    0.0100    0.0100    0.0100    0.0100    0.0100    0.0100    0.0100    0.0100
    0.0100    0.0100    0.0100    0.0100    0.0100    0.0100    0.0100    0.0100
    0.0100    0.0100    0.0100    0.0100    0.0100    0.0100    0.0100    0.0100
    0.0100    0.0100    0.0100    0.0100    0.0100    0.0100    0.0100    0.0100
    0.0100    0.0100    0.0100    0.0100    0.0100    0.0100    0.0100    0.0100
    0.0100    0.0100    0.0100    0.0100    0.0100    0.0100    0.0100    0.0100
    0.0100    0.0100    0.0100    0.0100    0.0100    0.0100    0.0100    0.0100
    0.0100    0.0100    0.0100    0.0100    0.0100    0.0100    0.0100    0.0100
    0.0100    0.0100    0.0100    0.0100    0.0100    0.0100    0.0100    0.0100
    0.0100    0.0100    0.0100    0.0100    0.0100    0.0100    0.0100    0.0100
    0.0100    0.0100    0.0100    0.0100    0.0100    0.0100    0.0100    0.0100
    0.0100    0.0100    0.0100    0.0100    0.0100    0.0100    0.0100    0.0100
    0.0100    0.0100    0.0100    0.0100    0.0100    0.0100    0.0100    0.0100
    0.0100    0.0100    0.0100    0.0100    0.0100    0.0100    0.0100    0.0100
    0.0100    0.0100    0.0100    0.0100    0.0100    0.0100    0.0100    0.0100
    0.0100    0.0100    0.0100    0.0100    0.0100    0.0100    0.0100    0.0100
    0.0100    0.0100    0.0100    0.0100    0.0100    0.0100    0.0100    0.0100
    0.0100    0.0100    0.0100    0.0100    0.0100    0.0100    0.0100    0.0100
    0.0100    0.0100    0.0100    0.0100    0.0100    0.0100    0.0100    0.0100
    0.0100    0.0100    0.0100    0.0100    0.0100    0.0100    0.0100    0.0100
    0.0100    0.0100    0.0100    0.0100    0.0100    0.0100    0.0100    0.0100
    0.0100    0.0100    0.0100    0.0100    0.0100    0.0100    0.0100    0.0100
    0.0100    0.0100    0.0100    0.0100    0.0100    0.0100    0.0100    0.0100
    0.0100    0.0100    0.0100    0.0100    0.0100    0.0100    0.0100    0.0100
    0.0100    0.0100    0.0100    0.0100    0.0100    0.0100    0.0100    0.0100
    0.0100    0.0100    0.0100    0.0100    0.0100    0.0100    0.0100    0.0100
    0.0100    0.0100    0.0100    0.0100    0.0100    0.0100    0.0100    0.0100
    0.0100    0.0100    0.0100    0.0100    0.0100    0.0100    0.0100    0.0100
    0.0100    0.0100    0.0100    0.0100    0.0100    0.0100    0.0100    0.0100
    0.0100    0.0100    0.0100    0.0100    0.0100    0.0100    0.0100    0.0100
    0.0100    0.0100    0.0100    0.0100    0.0100    0.0100    0.0100    0.0100
    0.0100    0.0100    0.0100    0.0100    0.0100    0.0100    0.0100    0.0100
    0.0100    0.0100    0.0100    0.0100    0.0100    0.0100    0.0100    0.0100
    0.0100    0.0100    0.0100    0.0100    0.0100    0.0100    0.0100    0.0100
    0.0100    0.0100    0.0100    0.0100    0.0100    0.0100    0.0100    0.0100
    0.0100    0.0100    0.0100    0.0100    0.0100    0.0100    0.0100    0.0100
    0.0100    0.0100    0.0100    0.0100    0.0100    0.0100    0.0100    0.0100
    0.0100    0.0100    0.0100    0.0100    0.0100    0.0100    0.0100    0.0100
    0.0100    0.0100    0.0100    0.0100    0.0100    0.0100    0.0100    0.0100
    0.0100    0.0100    0.0100    0.0100    0.0100    0.0100    0.0100    0.0100
    0.0100    0.0100    0.0100    0.0100    0.0100    0.0100    0.0100    0.0100
    0.0100    0.0100    0.0100    0.0100    0.0100    0.0100    0.0100    0.0100
    0.0100    0.0100    0.0100    0.0100    0.0100    0.0100    0.0100    0.0100
    0.0100    0.0100    0.0100    0.0100    0.0100    0.0100    0.0100    0.0100
    0.0100    0.0100    0.0100    0.0100    0.0100    0.0100    0.0100    0.0100
    0.0100    0.0100    0.0100    0.0100    0.0100    0.0100    0.0100    0.0100
    0.0100    0.0100    0.0100    0.0100    0.0100    0.0100    0.0100    0.0100
    0.0100    0.0100    0.0100    0.0100    0.0100    0.0100    0.0100    0.0100
    0.0100    0.0100    0.0100    0.0100    0.0100    0.0100    0.0100    0.0100
    0.0100    0.0100    0.0100    0.0100    0.0100    0.0100    0.0100    0.0100
    0.0100    0.0100    0.0100    0.0100    0.0100    0.0100    0.0100    0.0100
    0.0100    0.0100    0.0100    0.0100    0.0100    0.0100    0.0100    0.0100
    0.0100    0.0100    0.0100    0.0100    0.0100    0.0100    0.0100    0.0100
    0.0100    0.0100    0.0100    0.0100    0.0100    0.0100    0.0100    0.0100
    0.0100    0.0100    0.0100    0.0100    0.0100    0.0100    0.0100    0.0100
    0.0100    0.0100    0.0100    0.0100    0.0100    0.0100    0.0100    0.0100
    0.0100    0.0100    0.0100    0.0100    0.0100    0.0100    0.0100    0.0100
    0.0100    0.0100    0.0100    0.0100    0.0100    0.0100    0.0100    0.0100
    0.0100    0.0100    0.0100    0.0100    0.0100    0.0100    0.0100    0.0100
    0.0100    0.0100    0.0100    0.0100    0.0100    0.0100    0.0100    0.0100
    0.0100    0.0100    0.0100    0.0100    0.0100    0.0100    0.0100    0.0100
    0.0100    0.0100    0.0100    0.0100    0.0100    0.0100    0.0100    0.0100
    0.0100    0.0100    0.0100    0.0100    0.0100    0.0100    0.0100    0.0100
    0.0100    0.0100    0.0100    0.0100    0.0100    0.0100    0.0100    0.0100
    0.0100    0.0100    0.0100    0.0100    0.0100    0.0100    0.0100    0.0100
    0.0100    0.0100    0.0100    0.0100    0.0100    0.0100    0.0100    0.0100
    0.0100    0.0100    0.0100    0.0100    0.0100    0.0100    0.0100    0.0100
    0.0100    0.0100    0.0100    0.0100    0.0100    0.0100    0.0100    0.0100
    0.0100    0.0100    0.0100    0.0100    0.0100    0.0100    0.0100    0.0100
    0.0100    0.0100    0.0100    0.0100    0.0100    0.0100    0.0100    0.0100
    0.0100    0.0100    0.0100    0.0100    0.0100    0.0100    0.0100    0.0100
    0.0100    0.0100    0.0100    0.0100    0.0100    0.0100    0.0100    0.0100
    0.0100    0.0100    0.0100    0.0100    0.0100    0.0100    0.0100    0.0100
    0.0100    0.0100    0.0100    0.0100    0.0100    0.0100    0.0100    0.0100
    0.0100    0.0100    0.0100    0.0100    0.0100    0.0100    0.0100    0.0100
    0.0100    0.0100    0.0100    0.0100    0.0100    0.0100    0.0100    0.0100
    0.0100    0.0100    0.0100    0.0100    0.0100    0.0100    0.0100    0.0100
    0.0100    0.0100    0.0100    0.0100    0.0100    0.0100    0.0100    0.0100
    0.0100    0.0100    0.0100    0.0100    0.0100    0.0100    0.0100    0.0100
    0.0100    0.0100    0.0100    0.0100    0.0100    0.0100    0.0100    0.0100
    0.0100    0.0100    0.0100    0.0100    0.0100    0.0100    0.0100    0.0100
    0.0100    0.0100    0.0100    0.0100    0.0100    0.0100    0.0100    0.0100
    0.0100    0.0100    0.0100    0.0100    0.0100    0.0100    0.0100    0.0100
    0.0100    0.0100    0.0100    0.0100    0.0100    0.0100    0.0100    0.0100
    0.0100    0.0100    0.0100    0.0100    0.0100    0.0100    0.0100    0.0100
    0.0100    0.0100    0.0100    0.0100    0.0100    0.0100    0.0100    0.0100
    0.0100    0.0100    0.0100    0.0100    0.0100    0.0100    0.0100    0.0100
    0.0100    0.0100    0.0100    0.0100    0.0100    0.0100    0.0100    0.0100
    0.0100    0.0100    0.0100    0.0100    0.0100    0.0100    0.0100    0.0100
    0.0100    0.0100    0.0100    0.0100    0.0100    0.0100    0.0100    0.0100
    0.0100    0.0100    0.0100    0.0100    0.0100    0.0100    0.0100    0.0100
    0.0100    0.0100    0.0100    0.0100    0.0100    0.0100    0.0100    0.0100
    0.0100    0.0100    0.0100    0.0100    0.0100    0.0100    0.0100    0.0100
    0.0100    0.0100    0.0100    0.0100    0.0100    0.0100    0.0100    0.0100
    0.0100    0.0100    0.0100    0.0100    0.0100    0.0100    0.0100    0.0100
    0.0100    0.0100    0.0100    0.0100    0.0100    0.0100    0.0100    0.0100
    0.0100    0.0100    0.0100    0.0100    0.0100    0.0100    0.0100    0.0100
    0.0100    0.0100    0.0100    0.0100    0.0100    0.0100    0.0100    0.0100
    0.0100    0.0100    0.0100    0.0100    0.0100    0.0100    0.0100    0.0100
    0.0100    0.0100    0.0100    0.0100    0.0100    0.0100    0.0100    0.0100
    0.0100    0.0100    0.0100    0.0100    0.0100    0.0100    0.0100    0.0100
    0.0100    0.0100    0.0100    0.0100    0.0100    0.0100    0.0100    0.0100
    0.0100    0.0100    0.0100    0.0100    0.0100    0.0100    0.0100    0.0100
    0.0100    0.0100    0.0100    0.0100    0.0100    0.0100    0.0100    0.0100
    0.0100    0.0100    0.0100    0.0100    0.0100    0.0100    0.0100    0.0100
    0.0100    0.0100    0.0100    0.0100    0.0100    0.0100    0.0100    0.0100
    0.0100    0.0100    0.0100    0.0100    0.0100    0.0100    0.0100    0.0100
    0.0100    0.0100    0.0100    0.0100    0.0100    0.0100    0.0100    0.0100
    0.0100    0.0100    0.0100    0.0100    0.0100    0.0100    0.0100    0.0100
    0.0100    0.0100    0.0100    0.0100    0.0100    0.0100    0.0100    0.0100
    0.0100    0.0100    0.0100    0.0100    0.0100    0.0100    0.0100    0.0100
    0.0100    0.0100    0.0100    0.0100    0.0100    0.0100    0.0100    0.0100
    0.0100    0.0100    0.0100    0.0100    0.0100    0.0100    0.0100    0.0100
    0.0100    0.0100    0.0100    0.0100    0.0100    0.0100    0.0100    0.0100
    0.0100    0.0100    0.0100    0.0100    0.0100    0.0100    0.0100    0.0100
    0.0100    0.0100    0.0100    0.0100    0.0100    0.0100    0.0100    0.0100
    0.0100    0.0100    0.0100    0.0100    0.0100    0.0100    0.0100    0.0100
    0.0100    0.0100    0.0100    0.0100    0.0100    0.0100    0.0100    0.0100
    0.0100    0.0100    0.0100    0.0100    0.0100    0.0100    0.0100    0.0100
    0.0100    0.0100    0.0100    0.0100    0.0100    0.0100    0.0100    0.0100
    0.0100    0.0100    0.0100    0.0100    0.0100    0.0100    0.0100    0.0100
    0.0100    0.0100    0.0100    0.0100    0.0100    0.0100    0.0100    0.0100
    0.0100    0.0100    0.0100    0.0100    0.0100    0.0100    0.0100    0.0100
    0.0100    0.0100    0.0100    0.0100    0.0100    0.0100    0.0100    0.0100
    0.0100    0.0100    0.0100    0.0100    0.0100    0.0100    0.0100    0.0100
    0.0100    0.0100    0.0100    0.0100    0.0100    0.0100    0.0100    0.0100
    0.0100    0.0100    0.0100    0.0100    0.0100    0.0100    0.0100    0.0100
    0.0100    0.0100    0.0100    0.0100    0.0100    0.0100    0.0100    0.0100
    0.0100    0.0100    0.0100    0.0100    0.0100    0.0100    0.0100    0.0100
    0.0100    0.0100    0.0100    0.0100    0.0100    0.0100    0.0100    0.0100
    0.0100    0.0100    0.0100    0.0100    0.0100    0.0100    0.0100    0.0100
    0.0100    0.0100    0.0100    0.0100    0.0100    0.0100    0.0100    0.0100
    0.0100    0.0100    0.0100    0.0100    0.0100    0.0100    0.0100    0.0100
    0.0100    0.0100    0.0100    0.0100    0.0100    0.0100    0.0100    0.0100
    0.0100    0.0100    0.0100    0.0100    0.0100    0.0100    0.0100    0.0100
    0.0100    0.0100    0.0100    0.0100    0.0100    0.0100    0.0100    0.0100
    0.0100    0.0100    0.0100    0.0100    0.0100    0.0100    0.0100    0.0100
    0.0100    0.0100    0.0100    0.0100    0.0100    0.0100    0.0100    0.0100
    0.0100    0.0100    0.0100    0.0100    0.0100    0.0100    0.0100    0.0100
    0.0100    0.0100    0.0100    0.0100    0.0100    0.0100    0.0100    0.0100
    0.0100    0.0100    0.0100    0.0100    0.0100    0.0100    0.0100    0.0100
    0.0100    0.0100    0.0100    0.0100    0.0100    0.0100    0.0100    0.0100
    0.0100    0.0100    0.0100    0.0100    0.0100    0.0100    0.0100    0.0100
    0.0100    0.0100    0.0100    0.0100    0.0100    0.0100    0.0100    0.0100
    0.0100    0.0100    0.0100    0.0100    0.0100    0.0100    0.0100    0.0100
    0.0100    0.0100    0.0100    0.0100    0.0100    0.0100    0.0100    0.0100
    0.0100    0.0100    0.0100    0.0100    0.0100    0.0100    0.0100    0.0100
    0.0100    0.0100    0.0100    0.0100    0.0100    0.0100    0.0100    0.0100
    0.0100    0.0100    0.0100    0.0100    0.0100    0.0100    0.0100    0.0100
    0.0100    0.0100    0.0100    0.0100    0.0100    0.0100
   </PP_RAB>
 </PP_MESH>
  <PP_LOCAL type="real"  size="1854" columns="4">
   -4.5450680027E+01   -4.5446050412E+01   -4.5432165023E+01   -4.5409034239E+01
   -4.5376675353E+01   -4.5335112561E+01   -4.5284376951E+01   -4.5224506488E+01
   -4.5155545989E+01   -4.5077547105E+01   -4.4990568292E+01   -4.4894674776E+01
   -4.4789938520E+01   -4.4676438184E+01   -4.4554259077E+01   -4.4423493113E+01
   -4.4284238754E+01   -4.4136600951E+01   -4.3980691082E+01   -4.3816626882E+01
   -4.3644532371E+01   -4.3464537773E+01   -4.3276779431E+01   -4.3081399717E+01
   -4.2878546937E+01   -4.2668375225E+01   -4.2451044437E+01   -4.2226720037E+01
   -4.1995572973E+01   -4.1757779554E+01   -4.1513521310E+01   -4.1262984854E+01
   -4.1006361737E+01   -4.0743848289E+01   -4.0475645457E+01   -4.0201958641E+01
   -3.9922997514E+01   -3.9638975839E+01   -3.9350111279E+01   -3.9056625198E+01
   -3.8758742456E+01   -3.8456691195E+01   -3.8150702618E+01   -3.7841010758E+01
   -3.7527852245E+01   -3.7211466058E+01   -3.6892093276E+01   -3.6569976810E+01
   -3.6245361146E+01   -3.5918492057E+01   -3.5589616327E+01   -3.5258981454E+01
   -3.4926835353E+01   -3.4593426044E+01   -3.4259001341E+01   -3.3923808526E+01
   -3.3588094014E+01   -3.3252103021E+01   -3.2916079216E+01   -3.2580264361E+01
   -3.2244897960E+01   -3.1910216885E+01   -3.1576455001E+01   -3.1243842789E+01
   -3.0912606953E+01   -3.0582970030E+01   -3.0255149988E+01   -2.9929359817E+01
   -2.9605807124E+01   -2.9284693708E+01   -2.8966215141E+01   -2.8650560343E+01
   -2.8337911143E+01   -2.8028441849E+01   -2.7722318804E+01   -2.7419699939E+01
   -2.7120734328E+01   -2.6825561733E+01   -2.6534312149E+01   -2.6247105346E+01
   -2.5964050405E+01   -2.5685245256E+01   -2.5410776209E+01   -2.5140717487E+01
   -2.4875130751E+01   -2.4614064630E+01   -2.4357554245E+01   -2.4105620729E+01
   -2.3858270752E+01   -2.3615496038E+01   -2.3377272883E+01   -2.3143561672E+01
   -2.2914306391E+01   -2.2689434224E+01   -2.2468854737E+01   -2.2252461170E+01
   -2.2040141057E+01   -2.1831786349E+01   -2.1627294086E+01   -2.1426565571E+01
   -2.1229508393E+01   -2.1036026480E+01   -2.0846036104E+01   -2.0659539085E+01
   -2.0476380007E+01   -2.0296447216E+01   -2.0119690359E+01   -1.9946030420E+01
   -1.9775397178E+01   -1.9607721708E+01   -1.9442936822E+01   -1.9280976978E+01
   -1.9121778127E+01   -1.8965277587E+01   -1.8811413935E+01   -1.8660126906E+01
   -1.8511357301E+01   -1.8365047216E+01   -1.8221137640E+01   -1.8079573528E+01
   -1.7940315475E+01   -1.7803239649E+01   -1.7668264993E+01   -1.7535448079E+01
   -1.7404730998E+01   -1.7276031461E+01   -1.7149307628E+01   -1.7024508950E+01
   -1.6901584908E+01   -1.6780486476E+01   -1.6661165256E+01   -1.6543573631E+01
   -1.6427664802E+01   -1.6313392836E+01   -1.6200712710E+01   -1.6089580361E+01
   -1.5979952744E+01   -1.5871787881E+01   -1.5765044918E+01   -1.5659684183E+01
   -1.5555667236E+01   -1.5452956921E+01   -1.5351517415E+01   -1.5251314271E+01
   -1.5152314453E+01   -1.5054486371E+01   -1.4957799897E+01   -1.4862226386E+01
   -1.4767738676E+01   -1.4674311089E+01   -1.4581919412E+01   -1.4490540877E+01
   -1.4400154122E+01   -1.4310739156E+01   -1.4222277302E+01   -1.4134751138E+01
   -1.4048144434E+01   -1.3962442077E+01   -1.3877629997E+01   -1.3793695083E+01
   -1.3710625109E+01   -1.3628408641E+01   -1.3547034963E+01   -1.3466493993E+01
   -1.3386776203E+01   -1.3307872549E+01   -1.3229774394E+01   -1.3152473447E+01
   -1.3075961700E+01   -1.3000231373E+01   -1.2925274864E+01   -1.2851084705E+01
   -1.2777653523E+01   -1.2704974008E+01   -1.2633038885E+01   -1.2561840889E+01
   -1.2491372749E+01   -1.2421627171E+01   -1.2352596829E+01   -1.2284274360E+01
   -1.2216652352E+01   -1.2149723351E+01   -1.2083479855E+01   -1.2017914319E+01
   -1.1953019157E+01   -1.1888786748E+01   -1.1825209442E+01   -1.1762279564E+01
   -1.1699989423E+01   -1.1638331320E+01   -1.1577297553E+01   -1.1516880424E+01
   -1.1457072250E+01   -1.1397865366E+01   -1.1339252134E+01   -1.1281224951E+01
   -1.1223776249E+01   -1.1166898511E+01   -1.1110584265E+01   -1.1054826098E+01
   -1.0999616657E+01   -1.0944948652E+01   -1.0890814863E+01   -1.0837208142E+01
   -1.0784121414E+01   -1.0731547684E+01   -1.0679480035E+01   -1.0627911635E+01
   -1.0576835734E+01   -1.0526245667E+01   -1.0476134858E+01   -1.0426496818E+01
   -1.0377325147E+01   -1.0328613533E+01   -1.0280355756E+01   -1.0232545684E+01
   -1.0185177278E+01   -1.0138244587E+01   -1.0091741750E+01   -1.0045662997E+01
   -1.0000002646E+01   -9.9547551061E+00   -9.9099148727E+00   -9.8654765296E+00
   -9.8214347477E+00   -9.7777842837E+00   -9.7345199799E+00   -9.6916367627E+00
   -9.6491296420E+00   -9.6069937100E+00   -9.5652241402E+00   -9.5238161862E+00
   -9.4827651806E+00   -9.4420665340E+00   -9.4017157335E+00   -9.3617083415E+00
   -9.3220399946E+00   -9.2827064023E+00   -9.2437033458E+00   -9.2050266762E+00
   -9.1666723139E+00   -9.1286362466E+00   -9.0909145286E+00   -9.0535032789E+00
   -9.0163986803E+00   -8.9795969777E+00   -8.9430944774E+00   -8.9068875452E+00
   -8.8709726057E+00   -8.8353461409E+00   -8.8000046890E+00   -8.7649448436E+00
   -8.7301632520E+00   -8.6956566149E+00   -8.6614216847E+00   -8.6274552649E+00
   -8.5937542087E+00   -8.5603154186E+00   -8.5271358448E+00   -8.4942124850E+00
   -8.4615423827E+00   -8.4291226270E+00   -8.3969503512E+00   -8.3650227323E+00
   -8.3333369902E+00   -8.3018903865E+00   -8.2706802243E+00   -8.2397038469E+00
   -8.2089586372E+00   -8.1784420172E+00   -8.1481514469E+00   -8.1180844240E+00
   -8.0882384828E+00   -8.0586111938E+00   -8.0292001631E+00   -8.0000030315E+00
   -7.9710174738E+00   -7.9422411988E+00   -7.9136719480E+00   -7.8853074952E+00
   -7.8571456462E+00   -7.8291842380E+00   -7.8014211382E+00   -7.7738542445E+00
   -7.7464814844E+00   -7.7193008144E+00   -7.6923102195E+00   -7.6655077128E+00
   -7.6388913351E+00   -7.6124591543E+00   -7.5862092648E+00   -7.5601397874E+00
   -7.5342488684E+00   -7.5085346797E+00   -7.4829954179E+00   -7.4576293040E+00
   -7.4324345832E+00   -7.4074095242E+00   -7.3825524190E+00   -7.3578615824E+00
   -7.3333353517E+00   -7.3089720864E+00   -7.2847701676E+00   -7.2607279977E+00
   -7.2368440004E+00   -7.2131166198E+00   -7.1895443204E+00   -7.1661255868E+00
   -7.1428589232E+00   -7.1197428531E+00   -7.0967759194E+00   -7.0739566832E+00
   -7.0512837245E+00   -7.0287556412E+00   -7.0063710492E+00   -6.9841285818E+00
   -6.9620268898E+00   -6.9400646409E+00   -6.9182405196E+00   -6.8965532269E+00
   -6.8750014800E+00   -6.8535840122E+00   -6.8322995724E+00   -6.8111469250E+00
   -6.7901248497E+00   -6.7692321412E+00   -6.7484676091E+00   -6.7278300775E+00
   -6.7073183846E+00   -6.6869313831E+00   -6.6666679394E+00   -6.6465269336E+00
   -6.6265072594E+00   -6.6066078236E+00   -6.5868275464E+00   -6.5671653605E+00
   -6.5476202116E+00   -6.5281910579E+00   -6.5088768698E+00   -6.4896766298E+00
   -6.4705893326E+00   -6.4516139845E+00   -6.4327496036E+00   -6.4139952192E+00
   -6.3953498721E+00   -6.3768126141E+00   -6.3583825080E+00   -6.3400586275E+00
   -6.3218400569E+00   -6.3037258907E+00   -6.2857152343E+00   -6.2678072028E+00
   -6.2500009216E+00   -6.2322955260E+00   -6.2146901611E+00   -6.1971839814E+00
   -6.1797761512E+00   -6.1624658439E+00   -6.1452522425E+00   -6.1281345386E+00
   -6.1111119332E+00   -6.0941836361E+00   -6.0773488655E+00   -6.0606068486E+00
   -6.0439568210E+00   -6.0273980265E+00   -6.0109297173E+00   -5.9945511538E+00
   -5.9782616043E+00   -5.9620603452E+00   -5.9459466605E+00   -5.9299198422E+00
   -5.9139791897E+00   -5.8981240099E+00   -5.8823536173E+00   -5.8666673336E+00
   -5.8510644876E+00   -5.8355444155E+00   -5.8201064602E+00   -5.8047499719E+00
   -5.7894743072E+00   -5.7742788298E+00   -5.7591629100E+00   -5.7441259246E+00
   -5.7291672569E+00   -5.7142862967E+00   -5.6994824399E+00   -5.6847550890E+00
   -5.6701036523E+00   -5.6555275445E+00   -5.6410261860E+00   -5.6265990033E+00
   -5.6122454287E+00   -5.5979649005E+00   -5.5837568622E+00   -5.5696207635E+00
   -5.5555560593E+00   -5.5415622101E+00   -5.5276386819E+00   -5.5137849458E+00
   -5.5000004785E+00   -5.4862847617E+00   -5.4726372823E+00   -5.4590575325E+00
   -5.4455450092E+00   -5.4320992145E+00   -5.4187196553E+00   -5.4054058433E+00
   -5.3921572952E+00   -5.3789735323E+00   -5.3658540804E+00   -5.3527984702E+00
   -5.3398062369E+00   -5.3268769199E+00   -5.3140100635E+00   -5.3012052161E+00
   -5.2884619305E+00   -5.2757797639E+00   -5.2631582775E+00   -5.2505970369E+00
   -5.2380956119E+00   -5.2256535760E+00   -5.2132705072E+00   -5.2009459873E+00
   -5.1886796019E+00   -5.1764709407E+00   -5.1643195973E+00   -5.1522251688E+00
   -5.1401872564E+00   -5.1282054649E+00   -5.1162794027E+00   -5.1044086818E+00
   -5.0925929181E+00   -5.0808317307E+00   -5.0691247423E+00   -5.0574715792E+00
   -5.0458718710E+00   -5.0343252508E+00   -5.0228313549E+00   -5.0113898231E+00
   -5.0000002982E+00   -4.9886624266E+00   -4.9773758576E+00   -4.9661402438E+00
   -4.9549552409E+00   -4.9438205077E+00   -4.9327357061E+00   -4.9217005009E+00
   -4.9107145601E+00   -4.8997775545E+00   -4.8888891578E+00   -4.8780490468E+00
   -4.8672569008E+00   -4.8565124023E+00   -4.8458152365E+00   -4.8351650912E+00
   -4.8245616571E+00   -4.8140046276E+00   -4.8034936986E+00   -4.7930285689E+00
   -4.7826089399E+00   -4.7722345153E+00   -4.7619050017E+00   -4.7516201080E+00
   -4.7413795458E+00   -4.7311830291E+00   -4.7210302742E+00   -4.7109210002E+00
   -4.7008549282E+00   -4.6908317819E+00   -4.6808512873E+00   -4.6709131727E+00
   -4.6610171689E+00   -4.6511630086E+00   -4.6413504271E+00   -4.6315791617E+00
   -4.6218489521E+00   -4.6121595401E+00   -4.6025106695E+00   -4.5929020866E+00
   -4.5833335394E+00   -4.5738047783E+00   -4.5643155556E+00   -4.5548656258E+00
   -4.5454547454E+00   -4.5360826727E+00   -4.5267491682E+00   -4.5174539944E+00
   -4.5081969155E+00   -4.4989776980E+00   -4.4897961099E+00   -4.4806519214E+00
   -4.4715449044E+00   -4.4624748327E+00   -4.4534414820E+00   -4.4444446297E+00
   -4.4354840550E+00   -4.4265595390E+00   -4.4176708644E+00   -4.4088178159E+00
   -4.4000001795E+00   -4.3912177433E+00   -4.3824702969E+00   -4.3737576316E+00
   -4.3650795404E+00   -4.3564358178E+00   -4.3478262602E+00   -4.3392506654E+00
   -4.3307088328E+00   -4.3222005634E+00   -4.3137256597E+00   -4.3052839260E+00
   -4.2968751678E+00   -4.2884991923E+00   -4.2801558081E+00   -4.2718448255E+00
   -4.2635660559E+00   -4.2553193126E+00   -4.2471044100E+00   -4.2389211641E+00
   -4.2307693922E+00   -4.2226489131E+00   -4.2145595469E+00   -4.2065011153E+00
   -4.1984734410E+00   -4.1904763484E+00   -4.1825096630E+00   -4.1745732116E+00
   -4.1666668226E+00   -4.1587903255E+00   -4.1509435510E+00   -4.1431263312E+00
   -4.1353384995E+00   -4.1275798904E+00   -4.1198503397E+00   -4.1121496847E+00
   -4.1044777634E+00   -4.0968344153E+00   -4.0892194812E+00   -4.0816328030E+00
   -4.0740742235E+00   -4.0665435870E+00   -4.0590407389E+00   -4.0515655256E+00
   -4.0441177946E+00   -4.0366973949E+00   -4.0293041760E+00   -4.0219379891E+00
   -4.0145986861E+00   -4.0072861200E+00   -4.0000001451E+00   -3.9927406166E+00
   -3.9855073908E+00   -3.9783003249E+00   -3.9711192772E+00   -3.9639641073E+00
   -3.9568346754E+00   -3.9497308428E+00   -3.9426524721E+00   -3.9355994265E+00
   -3.9285715703E+00   -3.9215687689E+00   -3.9145908885E+00   -3.9076377963E+00
   -3.9007093605E+00   -3.8938054501E+00   -3.8869259351E+00   -3.8800706865E+00
   -3.8732395762E+00   -3.8664324768E+00   -3.8596492619E+00   -3.8528898061E+00
   -3.8461539848E+00   -3.8394416742E+00   -3.8327527514E+00   -3.8260870945E+00
   -3.8194445822E+00   -3.8128250943E+00   -3.8062285111E+00   -3.7996547141E+00
   -3.7931035853E+00   -3.7865750078E+00   -3.7800688652E+00   -3.7735850422E+00
   -3.7671234240E+00   -3.7606838969E+00   -3.7542663477E+00   -3.7478706640E+00
   -3.7414967344E+00   -3.7351444480E+00   -3.7288136948E+00   -3.7225043655E+00
   -3.7162163514E+00   -3.7099495449E+00   -3.7037038387E+00   -3.6974791265E+00
   -3.6912753025E+00   -3.6850922619E+00   -3.6789299004E+00   -3.6727881144E+00
   -3.6666668010E+00   -3.6605658580E+00   -3.6544851840E+00   -3.6484246780E+00
   -3.6423842399E+00   -3.6363637702E+00   -3.6303631701E+00   -3.6243823413E+00
   -3.6184211862E+00   -3.6124796081E+00   -3.6065575105E+00   -3.6006547979E+00
   -3.5947713752E+00   -3.5889071479E+00   -3.5830620224E+00   -3.5772359055E+00
   -3.5714287045E+00   -3.5656403275E+00   -3.5598706831E+00   -3.5541196806E+00
   -3.5483872296E+00   -3.5426732407E+00   -3.5369776247E+00   -3.5313002932E+00
   -3.5256411583E+00   -3.5200001326E+00   -3.5143771294E+00   -3.5087720623E+00
   -3.5031848459E+00   -3.4976153948E+00   -3.4920636245E+00   -3.4865294509E+00
   -3.4810127906E+00   -3.4755135604E+00   -3.4700316780E+00   -3.4645670614E+00
   -3.4591196290E+00   -3.4536893001E+00   -3.4482759942E+00   -3.4428796313E+00
   -3.4375001321E+00   -3.4321374175E+00   -3.4267914093E+00   -3.4214620294E+00
   -3.4161492003E+00   -3.4108528451E+00   -3.4055728873E+00   -3.4003092509E+00
   -3.3950618603E+00   -3.3898306403E+00   -3.3846155165E+00   -3.3794164145E+00
   -3.3742332606E+00   -3.3690659817E+00   -3.3639145048E+00   -3.3587787577E+00
   -3.3536586683E+00   -3.3485541652E+00   -3.3434651773E+00   -3.3383916339E+00
   -3.3333334650E+00   -3.3282906006E+00   -3.3232629715E+00   -3.3182505087E+00
   -3.3132531436E+00   -3.3082708082E+00   -3.3033034348E+00   -3.2983509561E+00
   -3.2934133052E+00   -3.2884904155E+00   -3.2835822210E+00   -3.2786886560E+00
   -3.2738096552E+00   -3.2689451537E+00   -3.2640950869E+00   -3.2592593906E+00
   -3.2544380012E+00   -3.2496308551E+00   -3.2448378894E+00   -3.2400590415E+00
   -3.2352942489E+00   -3.2305434499E+00   -3.2258065828E+00   -3.2210835866E+00
   -3.2163744002E+00   -3.2116789633E+00   -3.2069972157E+00   -3.2023290976E+00
   -3.1976745497E+00   -3.1930335128E+00   -3.1884059282E+00   -3.1837917374E+00
   -3.1791908825E+00   -3.1746033056E+00   -3.1700289494E+00   -3.1654677568E+00
   -3.1609196711E+00   -3.1563846359E+00   -3.1518625950E+00   -3.1473534928E+00
   -3.1428572737E+00   -3.1383738826E+00   -3.1339032646E+00   -3.1294453654E+00
   -3.1250001307E+00   -3.1205675065E+00   -3.1161474394E+00   -3.1117398760E+00
   -3.1073447633E+00   -3.1029620487E+00   -3.0985916798E+00   -3.0942336044E+00
   -3.0898877709E+00   -3.0855541276E+00   -3.0812326233E+00   -3.0769232072E+00
   -3.0726258286E+00   -3.0683404371E+00   -3.0640669826E+00   -3.0598054153E+00
   -3.0555556857E+00   -3.0513177445E+00   -3.0470915428E+00   -3.0428770318E+00
   -3.0386741631E+00   -3.0344828885E+00   -3.0303031601E+00   -3.0261349304E+00
   -3.0219781517E+00   -3.0178327772E+00   -3.0136987598E+00   -3.0095760530E+00
   -3.0054646104E+00   -3.0013643860E+00   -2.9972753338E+00   -2.9931974083E+00
   -2.9891305641E+00   -2.9850747562E+00   -2.9810299395E+00   -2.9769960697E+00
   -2.9729731021E+00   -2.9689609928E+00   -2.9649596978E+00   -2.9609691734E+00
   -2.9569893762E+00   -2.9530202631E+00   -2.9490617910E+00   -2.9451139172E+00
   -2.9411765992E+00   -2.9372497948E+00   -2.9333334619E+00   -2.9294275586E+00
   -2.9255320433E+00   -2.9216468747E+00   -2.9177720116E+00   -2.9139074130E+00
   -2.9100530382E+00   -2.9062088467E+00   -2.9023747982E+00   -2.8985508526E+00
   -2.8947369700E+00   -2.8909331107E+00   -2.8871392353E+00   -2.8833553046E+00
   -2.8795812794E+00   -2.8758171209E+00   -2.8720627906E+00   -2.8683182499E+00
   -2.8645834606E+00   -2.8608583847E+00   -2.8571429842E+00   -2.8534372217E+00
   -2.8497410596E+00   -2.8460544606E+00   -2.8423773878E+00   -2.8387098041E+00
   -2.8350516730E+00   -2.8314029579E+00   -2.8277636226E+00   -2.8241336308E+00
   -2.8205129468E+00   -2.8169015346E+00   -2.8132993588E+00   -2.8097063840E+00
   -2.8061225749E+00   -2.8025478965E+00   -2.7989823140E+00   -2.7954257927E+00
   -2.7918782981E+00   -2.7883397959E+00   -2.7848102519E+00   -2.7812896322E+00
   -2.7777779029E+00   -2.7742750305E+00   -2.7707809814E+00   -2.7672957224E+00
   -2.7638192202E+00   -2.7603514421E+00   -2.7568923551E+00   -2.7534419267E+00
   -2.7500001244E+00   -2.7465669158E+00   -2.7431422688E+00   -2.7397261515E+00
   -2.7363185319E+00   -2.7329193785E+00   -2.7295286597E+00   -2.7261463442E+00
   -2.7227724008E+00   -2.7194067983E+00   -2.7160495060E+00   -2.7127004931E+00
   -2.7093597290E+00   -2.7060271833E+00   -2.7027028256E+00   -2.6993866258E+00
   -2.6960785540E+00   -2.6927785803E+00   -2.6894866750E+00   -2.6862028085E+00
   -2.6829269515E+00   -2.6796590746E+00   -2.6763991487E+00   -2.6731471449E+00
   -2.6699030344E+00   -2.6666667883E+00   -2.6634383782E+00   -2.6602177756E+00
   -2.6570049522E+00   -2.6537998799E+00   -2.6506025307E+00   -2.6474128766E+00
   -2.6442308900E+00   -2.6410565432E+00   -2.6378898088E+00   -2.6347306593E+00
   -2.6315790677E+00   -2.6284350067E+00   -2.6252984494E+00   -2.6221693690E+00
   -2.6190477388E+00   -2.6159335323E+00   -2.6128267229E+00   -2.6097272843E+00
   -2.6066351904E+00   -2.6035504150E+00   -2.6004729323E+00   -2.5974027163E+00
   -2.5943397414E+00   -2.5912839820E+00   -2.5882354126E+00   -2.5851940079E+00
   -2.5821597427E+00   -2.5791325917E+00   -2.5761125302E+00   -2.5730995330E+00
   -2.5700935756E+00   -2.5670946333E+00   -2.5641026815E+00   -2.5611176959E+00
   -2.5581396520E+00   -2.5551685259E+00   -2.5522042932E+00   -2.5492469302E+00
   -2.5462964129E+00   -2.5433527176E+00   -2.5404158207E+00   -2.5374856987E+00
   -2.5345623280E+00   -2.5316456855E+00   -2.5287357480E+00   -2.5258324922E+00
   -2.5229358953E+00   -2.5200459344E+00   -2.5171625866E+00   -2.5142858294E+00
   -2.5114156400E+00   -2.5085519962E+00   -2.5056948755E+00   -2.5028442556E+00
   -2.5000001144E+00   -2.4971624298E+00   -2.4943311798E+00   -2.4915063427E+00
   -2.4886878966E+00   -2.4858758198E+00   -2.4830700909E+00   -2.4802706883E+00
   -2.4774775907E+00   -2.4746907767E+00   -2.4719102253E+00   -2.4691359152E+00
   -2.4663678256E+00   -2.4636059355E+00   -2.4608502242E+00   -2.4581006708E+00
   -2.4553572549E+00   -2.4526199558E+00   -2.4498887531E+00   -2.4471636266E+00
   -2.4444445558E+00   -2.4417315208E+00   -2.4390245013E+00   -2.4363234775E+00
   -2.4336284294E+00   -2.4309393372E+00   -2.4282561811E+00   -2.4255789417E+00
   -2.4229075992E+00   -2.4202421342E+00   -2.4175825275E+00   -2.4149287596E+00
   -2.4122808113E+00   -2.4096386636E+00   -2.4070022975E+00   -2.4043716938E+00
   -2.4017468338E+00   -2.3991276988E+00   -2.3965142699E+00   -2.3939065285E+00
   -2.3913044562E+00   -2.3887080343E+00   -2.3861172447E+00   -2.3835320689E+00
   -2.3809524887E+00   -2.3783784859E+00   -2.3758100426E+00   -2.3732471407E+00
   -2.3706897623E+00   -2.3681378895E+00   -2.3655915046E+00   -2.3630505900E+00
   -2.3605151279E+00   -2.3579851009E+00   -2.3554604916E+00   -2.3529412824E+00
   -2.3504274562E+00   -2.3479189957E+00   -2.3454158837E+00   -2.3429181032E+00
   -2.3404256371E+00   -2.3379384685E+00   -2.3354565804E+00   -2.3329799562E+00
   -2.3305085791E+00   -2.3280424324E+00   -2.3255814996E+00   -2.3231257640E+00
   -2.3206752094E+00   -2.3182298192E+00   -2.3157895773E+00   -2.3133544672E+00
   -2.3109244730E+00   -2.3084995784E+00   -2.3060797675E+00   -2.3036650242E+00
   -2.3012553327E+00   -2.2988506772E+00   -2.2964510417E+00   -2.2940564108E+00
   -2.2916667686E+00   -2.2892820997E+00   -2.2869023885E+00   -2.2845276196E+00
   -2.2821577777E+00   -2.2797928473E+00   -2.2774328132E+00   -2.2750776603E+00
   -2.2727273734E+00   -2.2703819374E+00   -2.2680413374E+00   -2.2657055585E+00
   -2.2633745856E+00   -2.2610484041E+00   -2.2587269991E+00   -2.2564103559E+00
   -2.2540984600E+00   -2.2517912967E+00   -2.2494888516E+00   -2.2471911101E+00
   -2.2448980579E+00   -2.2426096806E+00   -2.2403259640E+00   -2.2380468937E+00
   -2.2357724558E+00   -2.2335026360E+00   -2.2312374202E+00   -2.2289767946E+00
   -2.2267207452E+00   -2.2244692580E+00   -2.2222223193E+00   -2.2199799153E+00
   -2.2177420322E+00   -2.2155086565E+00   -2.2132797745E+00   -2.2110553726E+00
   -2.2088354374E+00   -2.2066199555E+00   -2.2044089134E+00   -2.2022022978E+00
   -2.2000000954E+00   -2.1978022931E+00   -2.1956088775E+00   -2.1934198357E+00
   -2.1912351545E+00   -2.1890548210E+00   -2.1868788221E+00   -2.1847071449E+00
   -2.1825397767E+00   -2.1803767045E+00   -2.1782179156E+00   -2.1760633973E+00
   -2.1739131369E+00   -2.1717671219E+00   -2.1696253397E+00   -2.1674877777E+00
   -2.1653544235E+00   -2.1632252647E+00   -2.1611002889E+00   -2.1589794839E+00
   -2.1568628373E+00   -2.1547503369E+00   -2.1526419705E+00   -2.1505377261E+00
   -2.1484375915E+00   -2.1463415548E+00   -2.1442496038E+00   -2.1421617268E+00
   -2.1400779119E+00   -2.1379981471E+00   -2.1359224206E+00   -2.1338507208E+00
   -2.1317830359E+00   -2.1297193543E+00   -2.1276596643E+00   -2.1256039544E+00
   -2.1235522131E+00   -2.1215044288E+00   -2.1194605902E+00   -2.1174206858E+00
   -2.1153847043E+00   -2.1133526344E+00   -2.1113244648E+00   -2.1093001843E+00
   -2.1072797817E+00   -2.1052632460E+00   -2.1032505659E+00   -2.1012417306E+00
   -2.0992367288E+00   -2.0972355498E+00   -2.0952381825E+00   -2.0932446161E+00
   -2.0912548398E+00   -2.0892688427E+00   -2.0872866142E+00   -2.0853081434E+00
   -2.0833334197E+00   -2.0813624324E+00   -2.0793951711E+00   -2.0774316250E+00
   -2.0754717838E+00   -2.0735156369E+00   -2.0715631739E+00   -2.0696143843E+00
   -2.0676692580E+00   -2.0657277844E+00   -2.0637899534E+00   -2.0618557547E+00
   -2.0599251780E+00   -2.0579982133E+00   -2.0560748504E+00   -2.0541550793E+00
   -2.0522388897E+00   -2.0503262719E+00   -2.0484172157E+00   -2.0465117112E+00
   -2.0446097486E+00   -2.0427113179E+00   -2.0408164093E+00   -2.0389250131E+00
   -2.0370371195E+00   -2.0351527188E+00   -2.0332718012E+00   -2.0313943572E+00
   -2.0295203771E+00   -2.0276498513E+00   -2.0257827703E+00   -2.0239191246E+00
   -2.0220589048E+00   -2.0202021013E+00   -2.0183487048E+00   -2.0164987059E+00
   -2.0146520953E+00   -2.0128088636E+00   -2.0109690017E+00   -2.0091325002E+00
   -2.0072993501E+00   -2.0054695420E+00   -2.0036430669E+00   -2.0018199157E+00
   -2.0000000794E+00   -1.9981835488E+00   -1.9963703150E+00   -1.9945603690E+00
   -1.9927537019E+00   -1.9909503048E+00   -1.9891501688E+00   -1.9873532851E+00
   -1.9855596449E+00   -1.9837692394E+00   -1.9819820598E+00   -1.9801980975E+00
   -1.9784173437E+00   -1.9766397898E+00   -1.9748654273E+00   -1.9730942475E+00
   -1.9713262418E+00   -1.9695614017E+00   -1.9677997188E+00   -1.9660411846E+00
   -1.9642857906E+00   -1.9625335284E+00   -1.9607843897E+00   -1.9590383661E+00
   -1.9572954493E+00   -1.9555556311E+00   -1.9538189031E+00   -1.9520852571E+00
   -1.9503546850E+00   -1.9486271786E+00   -1.9469027296E+00   -1.9451813301E+00
   -1.9434629720E+00   -1.9417476471E+00   -1.9400353475E+00   -1.9383260652E+00
   -1.9366197922E+00   -1.9349165205E+00   -1.9332162423E+00   -1.9315189496E+00
   -1.9298246347E+00   -1.9281332896E+00   -1.9264449066E+00   -1.9247594779E+00
   -1.9230769958E+00   -1.9213974524E+00   -1.9197208403E+00   -1.9180471516E+00
   -1.9163763787E+00   -1.9147085141E+00   -1.9130435501E+00   -1.9113814791E+00
   -1.9097222937E+00   -1.9080659864E+00   -1.9064125495E+00   -1.9047619758E+00
   -1.9031142578E+00   -1.9014693880E+00   -1.8998273591E+00   -1.8981881637E+00
   -1.8965517945E+00   -1.8949182442E+00   -1.8932875055E+00   -1.8916595712E+00
   -1.8900344340E+00   -1.8884120868E+00   -1.8867925223E+00   -1.8851757334E+00
   -1.8835617130E+00   -1.8819504540E+00   -1.8803419492E+00   -1.8787361917E+00
   -1.8771331744E+00   -1.8755328903E+00   -1.8739353324E+00   -1.8723404937E+00
   -1.8707483674E+00   -1.8691589464E+00   -1.8675722240E+00   -1.8659881931E+00
   -1.8644068471E+00   -1.8628281791E+00   -1.8612521823E+00   -1.8596788498E+00
   -1.8581081750E+00   -1.8565401512E+00   -1.8549747715E+00   -1.8534120294E+00
   -1.8518519182E+00   -1.8502944312E+00   -1.8487395619E+00   -1.8471873036E+00
   -1.8456376497E+00   -1.8440905937E+00   -1.8425461292E+00   -1.8410042495E+00
   -1.8394649482E+00   -1.8379282188E+00   -1.8363940550E+00   -1.8348624502E+00
   -1.8333333980E+00   -1.8318068922E+00   -1.8302829263E+00   -1.8287614940E+00
   -1.8272425891E+00   -1.8257262051E+00   -1.8242123358E+00   -1.8227009751E+00
   -1.8211921166E+00   -1.8196857541E+00   -1.8181818815E+00   -1.8166804926E+00
   -1.8151815812E+00   -1.8136851412E+00   -1.8121911666E+00   -1.8106996511E+00
   -1.8092105888E+00   -1.8077239736E+00   -1.8062397995E+00   -1.8047580605E+00
   -1.8032787505E+00   -1.8018018637E+00   -1.8003273940E+00   -1.7988553355E+00
   -1.7973856824E+00   -1.7959184287E+00   -1.7944535685E+00   -1.7929910961E+00
   -1.7915310056E+00   -1.7900732911E+00   -1.7886179468E+00   -1.7871649671E+00
   -1.7857143461E+00   -1.7842660781E+00   -1.7828201574E+00   -1.7813765782E+00
   -1.7799353350E+00   -1.7784964219E+00   -1.7770598335E+00   -1.7756255639E+00
   -1.7741936078E+00   -1.7727639593E+00   -1.7713366131E+00   -1.7699115634E+00
   -1.7684888048E+00   -1.7670683318E+00   -1.7656501389E+00   -1.7642342205E+00
   -1.7628205712E+00   -1.7614091855E+00   -1.7600000581E+00   -1.7585931835E+00
   -1.7571885562E+00   -1.7557861710E+00   -1.7543860225E+00   -1.7529881053E+00
   -1.7515924140E+00   -1.7501989434E+00   -1.7488076882E+00   -1.7474186431E+00
   -1.7460318029E+00   -1.7446471622E+00   -1.7432647158E+00   -1.7418844587E+00
   -1.7405063854E+00   -1.7391304910E+00   -1.7377567701E+00   -1.7363852178E+00
   -1.7350158287E+00   -1.7336485979E+00   -1.7322835202E+00   -1.7309205905E+00
   -1.7295598038E+00   -1.7282011550E+00   -1.7268446391E+00   -1.7254902511E+00
   -1.7241379859E+00   -1.7227878386E+00   -1.7214398042E+00   -1.7200938778E+00
   -1.7187500544E+00   -1.7174083290E+00   -1.7160686969E+00   -1.7147311530E+00
   -1.7133956925E+00   -1.7120623106E+00   -1.7107310023E+00   -1.7094017629E+00
   -1.7080745876E+00   -1.7067494714E+00   -1.7054264098E+00   -1.7041053977E+00
   -1.7027864306E+00   -1.7014695037E+00   -1.7001546122E+00   -1.6988417514E+00
   -1.6975309167E+00   -1.6962221032E+00   -1.6949153065E+00   -1.6936105217E+00
   -1.6923077443E+00   -1.6910069696E+00   -1.6897081931E+00   -1.6884114100E+00
   -1.6871166159E+00   -1.6858238062E+00   -1.6845329763E+00   -1.6832441216E+00
   -1.6819572376E+00   -1.6806723199E+00   -1.6793893638E+00   -1.6781083650E+00
   -1.6768293189E+00   -1.6755522211E+00   -1.6742770671E+00   -1.6730038525E+00
   -1.6717325730E+00   -1.6704632239E+00   -1.6691958011E+00   -1.6679303000E+00
   -1.6666667164E+00   -1.6654050458E+00   -1.6641452840E+00   -1.6628874265E+00
   -1.6616314692E+00   -1.6603774076E+00   -1.6591252376E+00   -1.6578749547E+00
   -1.6566265548E+00   -1.6553800336E+00   -1.6541353869E+00   -1.6528926105E+00
   -1.6516517000E+00   -1.6504126514E+00   -1.6491754604E+00   -1.6479401229E+00
   -1.6467066348E+00   -1.6454749917E+00   -1.6442451897E+00   -1.6430172246E+00
   -1.6417910923E+00   -1.6405667886E+00   -1.6393443096E+00   -1.6381236510E+00
   -1.6369048090E+00   -1.6356877793E+00   -1.6344725580E+00   -1.6332591410E+00
   -1.6320475244E+00   -1.6308377040E+00   -1.6296296760E+00   -1.6284234364E+00
   -1.6272189811E+00   -1.6260163063E+00   -1.6248154079E+00   -1.6236162821E+00
   -1.6224189248E+00   -1.6212233323E+00   -1.6200295007E+00   -1.6188374259E+00
   -1.6176471042E+00   -1.6164585317E+00   -1.6152717045E+00   -1.6140866188E+00
   -1.6129032708E+00   -1.6117216566E+00   -1.6105417724E+00   -1.6093636145E+00
   -1.6081871790E+00   -1.6070124623E+00   -1.6058394604E+00   -1.6046681697E+00
   -1.6034985864E+00   -1.6023307068E+00   -1.6011645272E+00   -1.6000000438E+00
   -1.5988372530E+00   -1.5976761511E+00   -1.5965167344E+00   -1.5953589992E+00
   -1.5942029419E+00   -1.5930485588E+00   -1.5918958463E+00   -1.5907448008E+00
   -1.5895954186E+00   -1.5884476962E+00   -1.5873016300E+00   -1.5861572164E+00
   -1.5850144517E+00   -1.5838733326E+00   -1.5827338553E+00   -1.5815960163E+00
   -1.5804598122E+00   -1.5793252394E+00   -1.5781922944E+00   -1.5770609737E+00
   -1.5759312738E+00   -1.5748031912E+00   -1.5736767225E+00   -1.5725518642E+00
   -1.5714286128E+00   -1.5703069649E+00   -1.5691869170E+00   -1.5680684659E+00
   -1.5669516079E+00   -1.5658363398E+00   -1.5647226581E+00   -1.5636105595E+00
   -1.5625000406E+00   -1.5613910980E+00   -1.5602837283E+00   -1.5591779283E+00
   -1.5580736946E+00   -1.5569710238E+00   -1.5558699127E+00   -1.5547703579E+00
   -1.5536723562E+00   -1.5525759042E+00   -1.5514809987E+00   -1.5503876364E+00
   -1.5492958141E+00   -1.5482055284E+00   -1.5471167763E+00   -1.5460295543E+00
   -1.5449438593E+00   -1.5438596881E+00   -1.5427770375E+00   -1.5416959043E+00
   -1.5406162852E+00   -1.5395381772E+00   -1.5384615770E+00   -1.5373864815E+00
   -1.5363128875E+00   -1.5352407919E+00   -1.5341701916E+00   -1.5331010834E+00
   -1.5320334642E+00   -1.5309673309E+00   -1.5299026804E+00   -1.5288395096E+00
   -1.5277778154E+00   -1.5267175948E+00   -1.5256588447E+00   -1.5246015620E+00
   -1.5235457436E+00   -1.5224913867E+00   -1.5214384880E+00   -1.5203870446E+00
   -1.5193370535E+00   -1.5182885116E+00   -1.5172414161E+00   -1.5161957637E+00
   -1.5151515517E+00   -1.5141087770E+00   -1.5130674367E+00   -1.5120275277E+00
   -1.5109890472E+00   -1.5099519922E+00   -1.5089163598E+00   -1.5078821470E+00
   -1.5068493509E+00   -1.5058179687E+00   -1.5047879974E+00   -1.5037594341E+00
   -1.5027322760E+00   -1.5017065201E+00   -1.5006821636E+00   -1.4996592037E+00
   -1.4986376374E+00   -1.4976174619E+00   -1.4965986745E+00   -1.4955812722E+00
   -1.4945652523E+00   -1.4935506118E+00   -1.4925373481E+00   -1.4915254583E+00
   -1.4905149397E+00   -1.4895057894E+00   -1.4884980046E+00   -1.4874915826E+00
   -1.4864865207E+00   -1.4854828160E+00   -1.4844804659E+00   -1.4834794675E+00
   -1.4824798182E+00   -1.4814815153E+00   -1.4804845559E+00   -1.4794889375E+00
   -1.4784946572E+00   -1.4775017124E+00   -1.4765101005E+00   -1.4755198187E+00
   -1.4745308643E+00   -1.4735432348E+00   -1.4725569273E+00   -1.4715719393E+00
   -1.4705882682E+00   -1.4696059113E+00   -1.4686248659E+00   -1.4676451294E+00
   -1.4666666993E+00   -1.4656895728E+00   -1.4647137475E+00   -1.4637392206E+00
   -1.4627659897E+00   -1.4617940521E+00   -1.4608234053E+00   -1.4598540466E+00
   -1.4588859736E+00   -1.4579191836E+00   -1.4569536742E+00   -1.4559894427E+00
   -1.4550264867E+00   -1.4540648036E+00   -1.4531043908E+00   -1.4521452459E+00
   -1.4511873664E+00   -1.4502307498E+00   -1.4492753935E+00   -1.4483212951E+00
   -1.4473684521E+00   -1.4464168620E+00   -1.4454665224E+00   -1.4445174307E+00
   -1.4435695846E+00   -1.4426229815E+00   -1.4416776191E+00   -1.4407334948E+00
   -1.4397906064E+00   -1.4388489512E+00   -1.4379085270E+00   -1.4369693313E+00
   -1.4360313617E+00   -1.4350946159E+00   -1.4341590913E+00   -1.4332247856E+00
   -1.4322916965E+00   -1.4313598216E+00   -1.4304291585E+00   -1.4294997048E+00
   -1.4285714581E+00   -1.4276444163E+00   -1.4267185768E+00   -1.4257939373E+00
   -1.4248704956E+00   -1.4239482493E+00   -1.4230271960E+00   -1.4221073335E+00
   -1.4211886595E+00   -1.4202711716E+00   -1.4193548676E+00   -1.4184397451E+00
   -1.4175258019E+00   -1.4166130357E+00   -1.4157014443E+00   -1.4147910253E+00
   -1.4138817765E+00   -1.4129736957E+00   -1.4120667805E+00   -1.4111610289E+00
   -1.4102564384E+00   -1.4093530069E+00   -1.4084507322E+00   -1.4075496121E+00
   -1.4066496442E+00   -1.4057508265E+00   -1.4048531567E+00   -1.4039566327E+00
   -1.4030612521E+00   -1.4021670129E+00   -1.4012739128E+00   -1.4003819497E+00
   -1.3994911215E+00   -1.3986014259E+00   -1.3977128607E+00   -1.3968254240E+00
   -1.3959391134E+00   -1.3950539268E+00   -1.3941698622E+00   -1.3932869173E+00
   -1.3924050901E+00   -1.3915243784E+00   -1.3906447801E+00   -1.3897662932E+00
   -1.3888889154E+00   -1.3880126448E+00   -1.3871374791E+00   -1.3862634164E+00
   -1.3853904545E+00   -1.3845185913E+00   -1.3836478249E+00   -1.3827781530E+00
   -1.3819095738E+00   -1.3810420850E+00   -1.3801756846E+00   -1.3793103707E+00
   -1.3784461411E+00   -1.3775829938E+00   -1.3767209268E+00   -1.3758599380E+00
   -1.3750000255E+00   -1.3741411872E+00   -1.3732834211E+00   -1.3724267253E+00
   -1.3715710976E+00   -1.3707165361E+00   -1.3698630388E+00   -1.3690106038E+00
   -1.3681592290E+00   -1.3673089125E+00   -1.3664596522E+00   -1.3656114463E+00
   -1.3647642927E+00   -1.3639181896E+00   -1.3630731349E+00   -1.3622291267E+00
   -1.3613861631E+00   -1.3605442421E+00   -1.3597033618E+00   -1.3588635203E+00
   -1.3580247156E+00   -1.3571869459E+00   -1.3563502091E+00   -1.3555145034E+00
   -1.3546798270E+00   -1.3538461778E+00   -1.3530135540E+00   -1.3521819538E+00
   -1.3513513751E+00   -1.3505218162E+00   -1.3496932752E+00   -1.3488657502E+00
   -1.3480392392E+00   -1.3472137406E+00   -1.3463892523E+00   -1.3455657726E+00
   -1.3447432996E+00   -1.3439218314E+00   -1.3431013663E+00   -1.3422819023E+00
   -1.3414634377E+00   -1.3406459706E+00   -1.3398294992E+00   -1.3390140217E+00
   -1.3381995362E+00   -1.3373860410E+00   -1.3365735343E+00   -1.3357620142E+00
   -1.3349514789E+00   -1.3341419268E+00   -1.3333333558E+00   -1.3325257644E+00
   -1.3317191507E+00   -1.3309135130E+00   -1.3301088494E+00   -1.3293051582E+00
   -1.3285024376E+00   -1.3277006860E+00   -1.3268999014E+00   -1.3261000823E+00
   -1.3253012268E+00   -1.3245033332E+00   -1.3237063997E+00   -1.3229104247E+00
   -1.3221154064E+00   -1.3213213430E+00   -1.3205282329E+00   -1.3197360744E+00
   -1.3189448656E+00   -1.3181546050E+00   -1.3173652909E+00   -1.3165769214E+00
   -1.3157894950E+00   -1.3150030099E+00   -1.3142174644E+00   -1.3134328570E+00
   -1.3126491858E+00   -1.3118664492E+00   -1.3110846455E+00   -1.3103037732E+00
   -1.3095238304E+00   -1.3087448156E+00   -1.3079667271E+00   -1.3071895632E+00
   -1.3064133223E+00   -1.3056380028E+00   -1.3048636030E+00   -1.3040901213E+00
   -1.3033175560E+00   -1.3025459055E+00   -1.3017751683E+00   -1.3010053426E+00
   -1.3002364269E+00   -1.2994684195E+00   -1.2987013189E+00   -1.2979351233E+00
   -1.2971698314E+00   -1.2964054413E+00   -1.2956419516E+00   -1.2948793607E+00
   -1.2941176669E+00   -1.2933568687E+00   -1.2925969645E+00   -1.2918379528E+00
   -1.2910798319E+00   -1.2903226002E+00   -1.2895662564E+00   -1.2888107986E+00
   -1.2880562255E+00   -1.2873025355E+00   -1.2865497269E+00   -1.2857977984E+00
   -1.2850467482E+00   -1.2842965750E+00   -1.2835472770E+00   -1.2827988529E+00
   -1.2820513011E+00   -1.2813046201E+00   -1.2805588082E+00   -1.2798138642E+00
   -1.2790697863E+00   -1.2783265731E+00   -1.2775842232E+00   -1.2768427349E+00
   -1.2761021068E+00   -1.2753623375E+00   -1.2746234253E+00   -1.2738853688E+00
   -1.2731481666E+00   -1.2724118172E+00   -1.2716763190E+00   -1.2709416706E+00
   -1.2702078705E+00   -1.2694749173E+00   -1.2687428094E+00   -1.2680115455E+00
   -1.2672811241E+00   -1.2665515437E+00   -1.2658228028E+00   -1.2650949001E+00
   -1.2643678340E+00   -1.2636416032E+00   -1.2629162061E+00   -1.2621916414E+00
   -1.2614679076E+00   -1.2607450034E+00   -1.2600229272E+00   -1.2593016776E+00
   -1.2585812533E+00   -1.2578616527E+00   -1.2571428746E+00   -1.2564249175E+00
   -1.2557077799E+00   -1.2549914606E+00   -1.2542759580E+00   -1.2535612708E+00
   -1.2528473976E+00   -1.2521343370E+00   -1.2514220876E+00   -1.2507106481E+00
   -1.2500000170E+00   -1.2492901930E+00   -1.2485811747E+00   -1.2478729607E+00
   -1.2471655497E+00   -1.2464589403E+00   -1.2457531311E+00   -1.2450481209E+00
   -1.2443439081E+00   -1.2436404915E+00   -1.2429378697E+00   -1.2422360414E+00
   -1.2415350052E+00   -1.2408347598E+00   -1.2401353039E+00   -1.2394366361E+00
   -1.2387387551E+00   -1.2380416595E+00   -1.2373453481E+00   -1.2366498195E+00
   -1.2359550724E+00   -1.2352611054E+00   -1.2345679173E+00   -1.2338755068E+00
   -1.2331838725E+00   -1.2324930132E+00   -1.2318029275E+00   -1.2311136141E+00
   -1.2304250718E+00   -1.2297372992E+00   -1.2290502951E+00   -1.2283640582E+00
   -1.2276785871E+00   -1.2269938807E+00   -1.2263099376E+00   -1.2256267565E+00
   -1.2249443362E+00   -1.2242626755E+00   -1.2235817729E+00   -1.2229016274E+00
   -1.2222222376E+00   -1.2215436022E+00   -1.2208657201E+00   -1.2201885898E+00
   -1.2195122103E+00   -1.2188365803E+00   -1.2181616984E+00   -1.2174875635E+00
   -1.2168141743E+00   -1.2161415297E+00   -1.2154696282E+00   -1.2147984688E+00
   -1.2141280502E+00   -1.2134583712E+00   -1.2127894305E+00   -1.2121212269E+00
   -1.2114537592E+00   -1.2107870263E+00   -1.2101210268E+00   -1.2094557595E+00
   -1.2087912234E+00   -1.2081274171E+00   -1.2074643394E+00   -1.2068019892E+00
   -1.2061403653E+00   -1.2054794665E+00   -1.2048192915E+00   -1.2041598392E+00
   -1.2035011084E+00   -1.2028430979E+00   -1.2021858066E+00   -1.2015292332E+00
   -1.2008733766E+00   -1.2002182356E+00   -1.1995638090E+00   -1.1989100958E+00
   -1.1982570946E+00   -1.1976048044E+00   -1.1969532239E+00   -1.1963023521E+00
   -1.1956521878E+00   -1.1950027297E+00   -1.1943539769E+00   -1.1937059280E+00
   -1.1930585820E+00   -1.1924119378E+00   -1.1917659941E+00   -1.1911207499E+00
   -1.1904762040E+00   -1.1898323553E+00   -1.1891892027E+00   -1.1885467450E+00
   -1.1879049810E+00   -1.1872639098E+00
  </PP_LOCAL>
 <PP_NONLOCAL>
   <PP_BETA.1
       type="real"
       size="1854"
       columns="4"
       index="1"
       angular_momentum="0"
       cutoff_radius_index=" 248"
       cutoff_radius="    2.4700000000E+00" >
    5.2233352088E-09    8.9003196593E-02    1.7786535185E-01    2.6644215067E-01
    3.5458280882E-01    4.4212703287E-01    5.2890220987E-01    6.1472089697E-01
    6.9937867614E-01    7.8265243267E-01    8.6429910881E-01    9.4405497539E-01
    1.0216354553E+00    1.0967355229E+00    1.1690306925E+00    1.2381786000E+00
    1.3038211685E+00    1.3655873411E+00    1.4230963496E+00    1.4759614820E+00
    1.5237942979E+00    1.5662092347E+00    1.6028285387E+00    1.6332874463E+00
    1.6572395377E+00    1.6743621776E+00    1.6843619562E+00    1.6869800393E+00
    1.6819973392E+00    1.6692394145E+00    1.6485810134E+00    1.6199501748E+00
    1.5833318116E+00    1.5387707005E+00    1.4863738180E+00    1.4263119634E+00
    1.3588206266E+00    1.2842000631E+00    1.2028145557E+00    1.1150908486E+00
    1.0215157577E+00    9.2263296869E-01    8.1903904958E-01    7.1137871614E-01
    6.0033939935E-01    4.8664517625E-01    3.7105013543E-01    2.5433125755E-01
    1.3728089950E-01    2.0698977788E-02   -9.4615048008E-02   -2.0787028692E-01
   -3.1829251617E-01   -4.2513216091E-01   -5.2767204700E-01   -6.2523482265E-01
   -7.1718994870E-01   -8.0296016306E-01   -8.8202733224E-01   -9.5393761109E-01
   -1.0183058421E+00   -1.0748191359E+00   -1.1232395871E+00   -1.1634060902E+00
   -1.1952352366E+00   -1.2187212831E+00   -1.2339351969E+00   -1.2410227976E+00
   -1.2402020248E+00   -1.2317593765E+00   -1.2160455711E+00   -1.1934704997E+00
   -1.1644975409E+00   -1.1296373224E+00   -1.0894410159E+00   -1.0444932606E+00
   -9.9540481189E-01   -9.4280501384E-01   -8.8733419549E-01   -8.2963608801E-01
   -7.7035035760E-01   -7.1010534436E-01   -6.4951109109E-01   -5.8915273883E-01
   -5.2958435766E-01   -4.7132327141E-01   -4.1484492506E-01   -3.6057833250E-01
   -3.0890213107E-01   -2.6014125776E-01   -2.1456425043E-01   -1.7238116382E-01
   -1.3374208499E-01   -9.8736293612E-02   -6.7391594759E-02   -3.9675916234E-02
   -1.5507631713E-02    5.2324188699E-03    2.2695738705E-02    3.7062028601E-02
    4.8532057669E-02    5.7332997194E-02    6.3696717419E-02    6.7778306410E-02
    6.9902073687E-02    7.0352531345E-02    6.9351483530E-02    6.7145334987E-02
    6.3963738874E-02    6.0024212480E-02    5.5529170124E-02    5.0663955062E-02
    4.5595399126E-02    4.0470818453E-02    3.5417451339E-02    3.0542317928E-02
    2.5932475499E-02    2.1655635584E-02    1.7761103911E-02    1.4280997387E-02
    1.1231689693E-02    8.6154340531E-03    6.4221088946E-03    4.6310324157E-03
    3.2127928955E-03    2.1310415019E-03    1.3441993252E-03    8.0726246836E-04
    4.7215994266E-04    2.8723763962E-04    2.2398600142E-04    2.0527888254E-04
    9.7552854458E-05   -1.1201365903E-05   -1.1609862054E-05    4.4119844778E-06
   -8.9779123825E-09   -4.9772196059E-07    0.0000000000E+00    0.0000000000E+00
    0.0000000000E+00    0.0000000000E+00    0.0000000000E+00    0.0000000000E+00
    0.0000000000E+00    0.0000000000E+00    0.0000000000E+00    0.0000000000E+00
    0.0000000000E+00    0.0000000000E+00    0.0000000000E+00    0.0000000000E+00
    0.0000000000E+00    0.0000000000E+00    0.0000000000E+00    0.0000000000E+00
    0.0000000000E+00    0.0000000000E+00    0.0000000000E+00    0.0000000000E+00
    0.0000000000E+00    0.0000000000E+00    0.0000000000E+00    0.0000000000E+00
    0.0000000000E+00    0.0000000000E+00    0.0000000000E+00    0.0000000000E+00
    0.0000000000E+00    0.0000000000E+00    0.0000000000E+00    0.0000000000E+00
    0.0000000000E+00    0.0000000000E+00    0.0000000000E+00    0.0000000000E+00
    0.0000000000E+00    0.0000000000E+00    0.0000000000E+00    0.0000000000E+00
    0.0000000000E+00    0.0000000000E+00    0.0000000000E+00    0.0000000000E+00
    0.0000000000E+00    0.0000000000E+00    0.0000000000E+00    0.0000000000E+00
    0.0000000000E+00    0.0000000000E+00    0.0000000000E+00    0.0000000000E+00
    0.0000000000E+00    0.0000000000E+00    0.0000000000E+00    0.0000000000E+00
    0.0000000000E+00    0.0000000000E+00    0.0000000000E+00    0.0000000000E+00
    0.0000000000E+00    0.0000000000E+00    0.0000000000E+00    0.0000000000E+00
    0.0000000000E+00    0.0000000000E+00    0.0000000000E+00    0.0000000000E+00
    0.0000000000E+00    0.0000000000E+00    0.0000000000E+00    0.0000000000E+00
    0.0000000000E+00    0.0000000000E+00    0.0000000000E+00    0.0000000000E+00
    0.0000000000E+00    0.0000000000E+00    0.0000000000E+00    0.0000000000E+00
    0.0000000000E+00    0.0000000000E+00    0.0000000000E+00    0.0000000000E+00
    0.0000000000E+00    0.0000000000E+00    0.0000000000E+00    0.0000000000E+00
    0.0000000000E+00    0.0000000000E+00    0.0000000000E+00    0.0000000000E+00
    0.0000000000E+00    0.0000000000E+00    0.0000000000E+00    0.0000000000E+00
    0.0000000000E+00    0.0000000000E+00    0.0000000000E+00    0.0000000000E+00
    0.0000000000E+00    0.0000000000E+00    0.0000000000E+00    0.0000000000E+00
    0.0000000000E+00    0.0000000000E+00    0.0000000000E+00    0.0000000000E+00
 0. 0. 0. 0.
 0. 0. 0. 0.
 0. 0. 0. 0.
 0. 0. 0. 0.
 0. 0. 0. 0.
 0. 0. 0. 0.
 0. 0. 0. 0.
 0. 0. 0. 0.
 0. 0. 0. 0.
 0. 0. 0. 0.
 0. 0. 0. 0.
 0. 0. 0. 0.
 0. 0. 0. 0.
 0. 0. 0. 0.
 0. 0. 0. 0.
 0. 0. 0. 0.
 0. 0. 0. 0.
 0. 0. 0. 0.
 0. 0. 0. 0.
 0. 0. 0. 0.
 0. 0. 0. 0.
 0. 0. 0. 0.
 0. 0. 0. 0.
 0. 0. 0. 0.
 0. 0. 0. 0.
 0. 0. 0. 0.
 0. 0. 0. 0.
 0. 0. 0. 0.
 0. 0. 0. 0.
 0. 0. 0. 0.
 0. 0. 0. 0.
 0. 0. 0. 0.
 0. 0. 0. 0.
 0. 0. 0. 0.
 0. 0. 0. 0.
 0. 0. 0. 0.
 0. 0. 0. 0.
 0. 0. 0. 0.
 0. 0. 0. 0.
 0. 0. 0. 0.
 0. 0. 0. 0.
 0. 0. 0. 0.
 0. 0. 0. 0.
 0. 0. 0. 0.
 0. 0. 0. 0.
 0. 0. 0. 0.
 0. 0. 0. 0.
 0. 0. 0. 0.
 0. 0. 0. 0.
 0. 0. 0. 0.
 0. 0. 0. 0.
 0. 0. 0. 0.
 0. 0. 0. 0.
 0. 0. 0. 0.
 0. 0. 0. 0.
 0. 0. 0. 0.
 0. 0. 0. 0.
 0. 0. 0. 0.
 0. 0. 0. 0.
 0. 0. 0. 0.
 0. 0. 0. 0.
 0. 0. 0. 0.
 0. 0. 0. 0.
 0. 0. 0. 0.
 0. 0. 0. 0.
 0. 0. 0. 0.
 0. 0. 0. 0.
 0. 0. 0. 0.
 0. 0. 0. 0.
 0. 0. 0. 0.
 0. 0. 0. 0.
 0. 0. 0. 0.
 0. 0. 0. 0.
 0. 0. 0. 0.
 0. 0. 0. 0.
 0. 0. 0. 0.
 0. 0. 0. 0.
 0. 0. 0. 0.
 0. 0. 0. 0.
 0. 0. 0. 0.
 0. 0. 0. 0.
 0. 0. 0. 0.
 0. 0. 0. 0.
 0. 0. 0. 0.
 0. 0. 0. 0.
 0. 0. 0. 0.
 0. 0. 0. 0.
 0. 0. 0. 0.
 0. 0. 0. 0.
 0. 0. 0. 0.
 0. 0. 0. 0.
 0. 0. 0. 0.
 0. 0. 0. 0.
 0. 0. 0. 0.
 0. 0. 0. 0.
 0. 0. 0. 0.
 0. 0. 0. 0.
 0. 0. 0. 0.
 0. 0. 0. 0.
 0. 0. 0. 0.
 0. 0. 0. 0.
 0. 0. 0. 0.
 0. 0. 0. 0.
 0. 0. 0. 0.
 0. 0. 0. 0.
 0. 0. 0. 0.
 0. 0. 0. 0.
 0. 0. 0. 0.
 0. 0. 0. 0.
 0. 0. 0. 0.
 0. 0. 0. 0.
 0. 0. 0. 0.
 0. 0. 0. 0.
 0. 0. 0. 0.
 0. 0. 0. 0.
 0. 0. 0. 0.
 0. 0. 0. 0.
 0. 0. 0. 0.
 0. 0. 0. 0.
 0. 0. 0. 0.
 0. 0. 0. 0.
 0. 0. 0. 0.
 0. 0. 0. 0.
 0. 0. 0. 0.
 0. 0. 0. 0.
 0. 0. 0. 0.
 0. 0. 0. 0.
 0. 0. 0. 0.
 0. 0. 0. 0.
 0. 0. 0. 0.
 0. 0. 0. 0.
 0. 0. 0. 0.
 0. 0. 0. 0.
 0. 0. 0. 0.
 0. 0. 0. 0.
 0. 0. 0. 0.
 0. 0. 0. 0.
 0. 0. 0. 0.
 0. 0. 0. 0.
 0. 0. 0. 0.
 0. 0. 0. 0.
 0. 0. 0. 0.
 0. 0. 0. 0.
 0. 0. 0. 0.
 0. 0. 0. 0.
 0. 0. 0. 0.
 0. 0. 0. 0.
 0. 0. 0. 0.
 0. 0. 0. 0.
 0. 0. 0. 0.
 0. 0. 0. 0.
 0. 0. 0. 0.
 0. 0. 0. 0.
 0. 0. 0. 0.
 0. 0. 0. 0.
 0. 0. 0. 0.
 0. 0. 0. 0.
 0. 0. 0. 0.
 0. 0. 0. 0.
 0. 0. 0. 0.
 0. 0. 0. 0.
 0. 0. 0. 0.
 0. 0. 0. 0.
 0. 0. 0. 0.
 0. 0. 0. 0.
 0. 0. 0. 0.
 0. 0. 0. 0.
 0. 0. 0. 0.
 0. 0. 0. 0.
 0. 0. 0. 0.
 0. 0. 0. 0.
 0. 0. 0. 0.
 0. 0. 0. 0.
 0. 0. 0. 0.
 0. 0. 0. 0.
 0. 0. 0. 0.
 0. 0. 0. 0.
 0. 0. 0. 0.
 0. 0. 0. 0.
 0. 0. 0. 0.
 0. 0. 0. 0.
 0. 0. 0. 0.
 0. 0. 0. 0.
 0. 0. 0. 0.
 0. 0. 0. 0.
 0. 0. 0. 0.
 0. 0. 0. 0.
 0. 0. 0. 0.
 0. 0. 0. 0.
 0. 0. 0. 0.
 0. 0. 0. 0.
 0. 0. 0. 0.
 0. 0. 0. 0.
 0. 0. 0. 0.
 0. 0. 0. 0.
 0. 0. 0. 0.
 0. 0. 0. 0.
 0. 0. 0. 0.
 0. 0. 0. 0.
 0. 0. 0. 0.
 0. 0. 0. 0.
 0. 0. 0. 0.
 0. 0. 0. 0.
 0. 0. 0. 0.
 0. 0. 0. 0.
 0. 0. 0. 0.
 0. 0. 0. 0.
 0. 0. 0. 0.
 0. 0. 0. 0.
 0. 0. 0. 0.
 0. 0. 0. 0.
 0. 0. 0. 0.
 0. 0. 0. 0.
 0. 0. 0. 0.
 0. 0. 0. 0.
 0. 0. 0. 0.
 0. 0. 0. 0.
 0. 0. 0. 0.
 0. 0. 0. 0.
 0. 0. 0. 0.
 0. 0. 0. 0.
 0. 0. 0. 0.
 0. 0. 0. 0.
 0. 0. 0. 0.
 0. 0. 0. 0.
 0. 0. 0. 0.
 0. 0. 0. 0.
 0. 0. 0. 0.
 0. 0. 0. 0.
 0. 0. 0. 0.
 0. 0. 0. 0.
 0. 0. 0. 0.
 0. 0. 0. 0.
 0. 0. 0. 0.
 0. 0. 0. 0.
 0. 0. 0. 0.
 0. 0. 0. 0.
 0. 0. 0. 0.
 0. 0. 0. 0.
 0. 0. 0. 0.
 0. 0. 0. 0.
 0. 0. 0. 0.
 0. 0. 0. 0.
 0. 0. 0. 0.
 0. 0. 0. 0.
 0. 0. 0. 0.
 0. 0. 0. 0.
 0. 0. 0. 0.
 0. 0. 0. 0.
 0. 0. 0. 0.
 0. 0. 0. 0.
 0. 0. 0. 0.
 0. 0. 0. 0.
 0. 0. 0. 0.
 0. 0. 0. 0.
 0. 0. 0. 0.
 0. 0. 0. 0.
 0. 0. 0. 0.
 0. 0. 0. 0.
 0. 0. 0. 0.
 0. 0. 0. 0.
 0. 0. 0. 0.
 0. 0. 0. 0.
 0. 0. 0. 0.
 0. 0. 0. 0.
 0. 0. 0. 0.
 0. 0. 0. 0.
 0. 0. 0. 0.
 0. 0. 0. 0.
 0. 0. 0. 0.
 0. 0. 0. 0.
 0. 0. 0. 0.
 0. 0. 0. 0.
 0. 0. 0. 0.
 0. 0. 0. 0.
 0. 0. 0. 0.
 0. 0. 0. 0.
 0. 0. 0. 0.
 0. 0. 0. 0.
 0. 0. 0. 0.
 0. 0. 0. 0.
 0. 0. 0. 0.
 0. 0. 0. 0.
 0. 0. 0. 0.
 0. 0. 0. 0.
 0. 0. 0. 0.
 0. 0. 0. 0.
 0. 0. 0. 0.
 0. 0. 0. 0.
 0. 0. 0. 0.
 0. 0. 0. 0.
 0. 0. 0. 0.
 0. 0. 0. 0.
 0. 0. 0. 0.
 0. 0. 0. 0.
 0. 0. 0. 0.
 0. 0. 0. 0.
 0. 0. 0. 0.
 0. 0. 0. 0.
 0. 0. 0. 0.
 0. 0. 0. 0.
 0. 0. 0. 0.
 0. 0. 0. 0.
 0. 0. 0. 0.
 0. 0. 0. 0.
 0. 0. 0. 0.
 0. 0. 0. 0.
 0. 0. 0. 0.
 0. 0. 0. 0.
 0. 0. 0. 0.
 0. 0. 0. 0.
 0. 0. 0. 0.
 0. 0. 0. 0.
 0. 0. 0. 0.
 0. 0. 0. 0.
 0. 0. 0. 0.
 0. 0. 0. 0.
 0. 0. 0. 0.
 0. 0. 0. 0.
 0. 0. 0. 0.
 0. 0. 0. 0.
 0. 0. 0. 0.
 0. 0. 0. 0.
 0. 0. 0. 0.
 0. 0. 0. 0.
 0. 0. 0. 0.
 0. 0. 0. 0.
 0. 0. 0. 0.
 0. 0. 0. 0.
 0. 0. 0. 0.
 0. 0. 0. 0.
 0. 0. 0. 0.
 0. 0. 0. 0.
 0. 0. 0. 0.
 0. 0. 0. 0.
 0. 0. 0. 0.
 0. 0. 0. 0.
 0. 0. 0. 0.
 0. 0. 0. 0.
 0. 0. 0. 0.
 0. 0. 0. 0.
 0. 0. 0. 0.
 0. 0. 0. 0.
 0. 0. 0. 0.
 0. 0. 0. 0.
 0. 0. 0. 0.
 0. 0. 0. 0.
 0. 0. 0. 0.
 0. 0. 0. 0.
 0. 0. 0. 0.
 0. 0. 0. 0.
 0. 0. 0. 0.
 0. 0. 0. 0.
 0. 0. 0. 0.
 0. 0. 0. 0.
 0. 0. 0. 0.
 0. 0. 0. 0.
 0. 0. 0. 0.
 0. 0. 0. 0.
 0. 0. 0. 0.
 0. 0. 0. 0.
 0. 0. 0. 0.
 0. 0. 0. 0.
 0. 0. 0. 0.
 0. 0. 0. 0.
 0. 0. 0. 0.
 0. 0. 0. 0.
 0. 0. 0. 0.
 0. 0. 0. 0.
 0. 0. 0. 0.
 0. 0. 0. 0.
 0. 0. 0. 0.
 0. 0. 0. 0.
 0. 0. 0. 0.
 0. 0. 0. 0.
 0. 0. 0. 0.
 0. 0. 0. 0.
 0. 0. 0. 0.
 0. 0. 0. 0.
 0. 0. 0. 0.
 0. 0. 0. 0.
 0. 0. 0. 0.
 0. 0. 0. 0.
 0. 0. 0. 0.
 0. 0. 0. 0.
 0. 0. 0. 0.
 0. 0. 0. 0.
 0. 0. 0. 0.
 0. 0. 0. 0.
 0. 0. 0. 0.
 0. 0. 0. 0.
 0. 0. 0. 0.
 0. 0. 0. 0.
 0. 0. 0. 0.
 0. 0. 0. 0.
 0. 0. 0. 0.
 0. 0. 0. 0.
 0. 0. 0. 0.
 0. 0. 0. 0.
 0. 0. 0. 0.
 0. 0. 0. 0.
 0. 0.
   </PP_BETA.1>
   <PP_BETA.2
       type="real"
       size="1854"
       columns="4"
       index="2"
       angular_momentum="0"
       cutoff_radius_index=" 248"
       cutoff_radius="    2.4700000000E+00" >
    4.0392167458E-09    1.4347996756E-03    3.2527807599E-03    5.8318975718E-03
    9.5397226749E-03    1.4728436010E-02    2.1730027124E-02    3.0851776701E-02
    4.2372079588E-02    5.6536666520E-02    7.3555276060E-02    9.3598821682E-02
    1.1679709185E-01    1.4323701322E-01    1.7296149891E-01    2.0596889559E-01
    2.4221303413E-01    2.8160388032E-01    3.2400877328E-01    3.6925423085E-01
    4.1712829326E-01    4.6738336866E-01    5.1973953706E-01    5.7388826276E-01
    6.2949645979E-01    6.8621085006E-01    7.4366254987E-01    8.0147181774E-01
    8.5925289448E-01    9.1661886553E-01    9.7318647594E-01    1.0285808295E+00
    1.0824399056E+00    1.1344188314E+00    1.1841938502E+00    1.2314659325E+00
    1.2759639818E+00    1.3174475948E+00    1.3557093412E+00    1.3905765369E+00
    1.4219124933E+00    1.4496172307E+00    1.4736276572E+00    1.4939172160E+00
    1.5104950195E+00    1.5234044906E+00    1.5327215416E+00    1.5385523289E+00
    1.5410306252E+00    1.5403148585E+00    1.5365848720E+00    1.5300384602E+00
    1.5208877425E+00    1.5093554357E+00    1.4956710867E+00    1.4800673286E+00
    1.4627762194E+00    1.4440257241E+00    1.4240363915E+00    1.4030182806E+00
    1.3811681789E+00    1.3586671559E+00    1.3356784829E+00    1.3123459486E+00
    1.2887925894E+00    1.2651198462E+00    1.2414071549E+00    1.2177119658E+00
    1.1940701846E+00    1.1704970165E+00    1.1469881902E+00    1.1235215344E+00
    1.1000588694E+00    1.0765481756E+00    1.0529259967E+00    1.0291200282E+00
    1.0050518459E+00    9.8063972314E-01    9.5580148664E-01    9.3045736364E-01
    9.0453277131E-01    8.7796100465E-01    8.5068578146E-01    8.2266360716E-01
    7.9386592723E-01    7.6428104044E-01    7.3391575182E-01    7.0279675052E-01
    6.7097170405E-01    6.3851006706E-01    6.0550360875E-01    5.7206667375E-01
    5.3833618522E-01    5.0447130391E-01    4.7065344041E-01    4.3708322464E-01
    4.0396465015E-01    3.7148999681E-01    3.3983766034E-01    3.0917198695E-01
    2.7963927584E-01    2.5137986549E-01    2.2450548091E-01    1.9899991063E-01
    1.7504423772E-01    1.5274576217E-01    1.3211395638E-01    1.1318117895E-01
    9.5952197149E-02    8.0414439489E-02    6.6537835732E-02    5.4275636733E-02
    4.3565572449E-02    3.4331221864E-02    2.6483601842E-02    1.9922954602E-02
    1.4540709842E-02    1.0221592907E-02    6.8458472405E-03    4.2915353629E-03
    2.4368812977E-03    1.1626157056E-03    3.5428367334E-04   -9.5524150549E-05
   -2.8505542267E-04   -3.0143293781E-04   -2.1887828364E-04   -9.6878014558E-05
    1.9867080659E-05    1.0150177781E-04    1.5552824362E-04    1.6659845755E-04
    7.9984273668E-05   -9.3599556132E-06   -9.7172366872E-06    3.7352126005E-06
   -7.3159741466E-09   -4.0558660418E-07    0.0000000000E+00    0.0000000000E+00
    0.0000000000E+00    0.0000000000E+00    0.0000000000E+00    0.0000000000E+00
    0.0000000000E+00    0.0000000000E+00    0.0000000000E+00    0.0000000000E+00
    0.0000000000E+00    0.0000000000E+00    0.0000000000E+00    0.0000000000E+00
    0.0000000000E+00    0.0000000000E+00    0.0000000000E+00    0.0000000000E+00
    0.0000000000E+00    0.0000000000E+00    0.0000000000E+00    0.0000000000E+00
    0.0000000000E+00    0.0000000000E+00    0.0000000000E+00    0.0000000000E+00
    0.0000000000E+00    0.0000000000E+00    0.0000000000E+00    0.0000000000E+00
    0.0000000000E+00    0.0000000000E+00    0.0000000000E+00    0.0000000000E+00
    0.0000000000E+00    0.0000000000E+00    0.0000000000E+00    0.0000000000E+00
    0.0000000000E+00    0.0000000000E+00    0.0000000000E+00    0.0000000000E+00
    0.0000000000E+00    0.0000000000E+00    0.0000000000E+00    0.0000000000E+00
    0.0000000000E+00    0.0000000000E+00    0.0000000000E+00    0.0000000000E+00
    0.0000000000E+00    0.0000000000E+00    0.0000000000E+00    0.0000000000E+00
    0.0000000000E+00    0.0000000000E+00    0.0000000000E+00    0.0000000000E+00
    0.0000000000E+00    0.0000000000E+00    0.0000000000E+00    0.0000000000E+00
    0.0000000000E+00    0.0000000000E+00    0.0000000000E+00    0.0000000000E+00
    0.0000000000E+00    0.0000000000E+00    0.0000000000E+00    0.0000000000E+00
    0.0000000000E+00    0.0000000000E+00    0.0000000000E+00    0.0000000000E+00
    0.0000000000E+00    0.0000000000E+00    0.0000000000E+00    0.0000000000E+00
    0.0000000000E+00    0.0000000000E+00    0.0000000000E+00    0.0000000000E+00
    0.0000000000E+00    0.0000000000E+00    0.0000000000E+00    0.0000000000E+00
    0.0000000000E+00    0.0000000000E+00    0.0000000000E+00    0.0000000000E+00
    0.0000000000E+00    0.0000000000E+00    0.0000000000E+00    0.0000000000E+00
    0.0000000000E+00    0.0000000000E+00    0.0000000000E+00    0.0000000000E+00
    0.0000000000E+00    0.0000000000E+00    0.0000000000E+00    0.0000000000E+00
    0.0000000000E+00    0.0000000000E+00    0.0000000000E+00    0.0000000000E+00
    0.0000000000E+00    0.0000000000E+00    0.0000000000E+00    0.0000000000E+00
 0. 0. 0. 0.
 0. 0. 0. 0.
 0. 0. 0. 0.
 0. 0. 0. 0.
 0. 0. 0. 0.
 0. 0. 0. 0.
 0. 0. 0. 0.
 0. 0. 0. 0.
 0. 0. 0. 0.
 0. 0. 0. 0.
 0. 0. 0. 0.
 0. 0. 0. 0.
 0. 0. 0. 0.
 0. 0. 0. 0.
 0. 0. 0. 0.
 0. 0. 0. 0.
 0. 0. 0. 0.
 0. 0. 0. 0.
 0. 0. 0. 0.
 0. 0. 0. 0.
 0. 0. 0. 0.
 0. 0. 0. 0.
 0. 0. 0. 0.
 0. 0. 0. 0.
 0. 0. 0. 0.
 0. 0. 0. 0.
 0. 0. 0. 0.
 0. 0. 0. 0.
 0. 0. 0. 0.
 0. 0. 0. 0.
 0. 0. 0. 0.
 0. 0. 0. 0.
 0. 0. 0. 0.
 0. 0. 0. 0.
 0. 0. 0. 0.
 0. 0. 0. 0.
 0. 0. 0. 0.
 0. 0. 0. 0.
 0. 0. 0. 0.
 0. 0. 0. 0.
 0. 0. 0. 0.
 0. 0. 0. 0.
 0. 0. 0. 0.
 0. 0. 0. 0.
 0. 0. 0. 0.
 0. 0. 0. 0.
 0. 0. 0. 0.
 0. 0. 0. 0.
 0. 0. 0. 0.
 0. 0. 0. 0.
 0. 0. 0. 0.
 0. 0. 0. 0.
 0. 0. 0. 0.
 0. 0. 0. 0.
 0. 0. 0. 0.
 0. 0. 0. 0.
 0. 0. 0. 0.
 0. 0. 0. 0.
 0. 0. 0. 0.
 0. 0. 0. 0.
 0. 0. 0. 0.
 0. 0. 0. 0.
 0. 0. 0. 0.
 0. 0. 0. 0.
 0. 0. 0. 0.
 0. 0. 0. 0.
 0. 0. 0. 0.
 0. 0. 0. 0.
 0. 0. 0. 0.
 0. 0. 0. 0.
 0. 0. 0. 0.
 0. 0. 0. 0.
 0. 0. 0. 0.
 0. 0. 0. 0.
 0. 0. 0. 0.
 0. 0. 0. 0.
 0. 0. 0. 0.
 0. 0. 0. 0.
 0. 0. 0. 0.
 0. 0. 0. 0.
 0. 0. 0. 0.
 0. 0. 0. 0.
 0. 0. 0. 0.
 0. 0. 0. 0.
 0. 0. 0. 0.
 0. 0. 0. 0.
 0. 0. 0. 0.
 0. 0. 0. 0.
 0. 0. 0. 0.
 0. 0. 0. 0.
 0. 0. 0. 0.
 0. 0. 0. 0.
 0. 0. 0. 0.
 0. 0. 0. 0.
 0. 0. 0. 0.
 0. 0. 0. 0.
 0. 0. 0. 0.
 0. 0. 0. 0.
 0. 0. 0. 0.
 0. 0. 0. 0.
 0. 0. 0. 0.
 0. 0. 0. 0.
 0. 0. 0. 0.
 0. 0. 0. 0.
 0. 0. 0. 0.
 0. 0. 0. 0.
 0. 0. 0. 0.
 0. 0. 0. 0.
 0. 0. 0. 0.
 0. 0. 0. 0.
 0. 0. 0. 0.
 0. 0. 0. 0.
 0. 0. 0. 0.
 0. 0. 0. 0.
 0. 0. 0. 0.
 0. 0. 0. 0.
 0. 0. 0. 0.
 0. 0. 0. 0.
 0. 0. 0. 0.
 0. 0. 0. 0.
 0. 0. 0. 0.
 0. 0. 0. 0.
 0. 0. 0. 0.
 0. 0. 0. 0.
 0. 0. 0. 0.
 0. 0. 0. 0.
 0. 0. 0. 0.
 0. 0. 0. 0.
 0. 0. 0. 0.
 0. 0. 0. 0.
 0. 0. 0. 0.
 0. 0. 0. 0.
 0. 0. 0. 0.
 0. 0. 0. 0.
 0. 0. 0. 0.
 0. 0. 0. 0.
 0. 0. 0. 0.
 0. 0. 0. 0.
 0. 0. 0. 0.
 0. 0. 0. 0.
 0. 0. 0. 0.
 0. 0. 0. 0.
 0. 0. 0. 0.
 0. 0. 0. 0.
 0. 0. 0. 0.
 0. 0. 0. 0.
 0. 0. 0. 0.
 0. 0. 0. 0.
 0. 0. 0. 0.
 0. 0. 0. 0.
 0. 0. 0. 0.
 0. 0. 0. 0.
 0. 0. 0. 0.
 0. 0. 0. 0.
 0. 0. 0. 0.
 0. 0. 0. 0.
 0. 0. 0. 0.
 0. 0. 0. 0.
 0. 0. 0. 0.
 0. 0. 0. 0.
 0. 0. 0. 0.
 0. 0. 0. 0.
 0. 0. 0. 0.
 0. 0. 0. 0.
 0. 0. 0. 0.
 0. 0. 0. 0.
 0. 0. 0. 0.
 0. 0. 0. 0.
 0. 0. 0. 0.
 0. 0. 0. 0.
 0. 0. 0. 0.
 0. 0. 0. 0.
 0. 0. 0. 0.
 0. 0. 0. 0.
 0. 0. 0. 0.
 0. 0. 0. 0.
 0. 0. 0. 0.
 0. 0. 0. 0.
 0. 0. 0. 0.
 0. 0. 0. 0.
 0. 0. 0. 0.
 0. 0. 0. 0.
 0. 0. 0. 0.
 0. 0. 0. 0.
 0. 0. 0. 0.
 0. 0. 0. 0.
 0. 0. 0. 0.
 0. 0. 0. 0.
 0. 0. 0. 0.
 0. 0. 0. 0.
 0. 0. 0. 0.
 0. 0. 0. 0.
 0. 0. 0. 0.
 0. 0. 0. 0.
 0. 0. 0. 0.
 0. 0. 0. 0.
 0. 0. 0. 0.
 0. 0. 0. 0.
 0. 0. 0. 0.
 0. 0. 0. 0.
 0. 0. 0. 0.
 0. 0. 0. 0.
 0. 0. 0. 0.
 0. 0. 0. 0.
 0. 0. 0. 0.
 0. 0. 0. 0.
 0. 0. 0. 0.
 0. 0. 0. 0.
 0. 0. 0. 0.
 0. 0. 0. 0.
 0. 0. 0. 0.
 0. 0. 0. 0.
 0. 0. 0. 0.
 0. 0. 0. 0.
 0. 0. 0. 0.
 0. 0. 0. 0.
 0. 0. 0. 0.
 0. 0. 0. 0.
 0. 0. 0. 0.
 0. 0. 0. 0.
 0. 0. 0. 0.
 0. 0. 0. 0.
 0. 0. 0. 0.
 0. 0. 0. 0.
 0. 0. 0. 0.
 0. 0. 0. 0.
 0. 0. 0. 0.
 0. 0. 0. 0.
 0. 0. 0. 0.
 0. 0. 0. 0.
 0. 0. 0. 0.
 0. 0. 0. 0.
 0. 0. 0. 0.
 0. 0. 0. 0.
 0. 0. 0. 0.
 0. 0. 0. 0.
 0. 0. 0. 0.
 0. 0. 0. 0.
 0. 0. 0. 0.
 0. 0. 0. 0.
 0. 0. 0. 0.
 0. 0. 0. 0.
 0. 0. 0. 0.
 0. 0. 0. 0.
 0. 0. 0. 0.
 0. 0. 0. 0.
 0. 0. 0. 0.
 0. 0. 0. 0.
 0. 0. 0. 0.
 0. 0. 0. 0.
 0. 0. 0. 0.
 0. 0. 0. 0.
 0. 0. 0. 0.
 0. 0. 0. 0.
 0. 0. 0. 0.
 0. 0. 0. 0.
 0. 0. 0. 0.
 0. 0. 0. 0.
 0. 0. 0. 0.
 0. 0. 0. 0.
 0. 0. 0. 0.
 0. 0. 0. 0.
 0. 0. 0. 0.
 0. 0. 0. 0.
 0. 0. 0. 0.
 0. 0. 0. 0.
 0. 0. 0. 0.
 0. 0. 0. 0.
 0. 0. 0. 0.
 0. 0. 0. 0.
 0. 0. 0. 0.
 0. 0. 0. 0.
 0. 0. 0. 0.
 0. 0. 0. 0.
 0. 0. 0. 0.
 0. 0. 0. 0.
 0. 0. 0. 0.
 0. 0. 0. 0.
 0. 0. 0. 0.
 0. 0. 0. 0.
 0. 0. 0. 0.
 0. 0. 0. 0.
 0. 0. 0. 0.
 0. 0. 0. 0.
 0. 0. 0. 0.
 0. 0. 0. 0.
 0. 0. 0. 0.
 0. 0. 0. 0.
 0. 0. 0. 0.
 0. 0. 0. 0.
 0. 0. 0. 0.
 0. 0. 0. 0.
 0. 0. 0. 0.
 0. 0. 0. 0.
 0. 0. 0. 0.
 0. 0. 0. 0.
 0. 0. 0. 0.
 0. 0. 0. 0.
 0. 0. 0. 0.
 0. 0. 0. 0.
 0. 0. 0. 0.
 0. 0. 0. 0.
 0. 0. 0. 0.
 0. 0. 0. 0.
 0. 0. 0. 0.
 0. 0. 0. 0.
 0. 0. 0. 0.
 0. 0. 0. 0.
 0. 0. 0. 0.
 0. 0. 0. 0.
 0. 0. 0. 0.
 0. 0. 0. 0.
 0. 0. 0. 0.
 0. 0. 0. 0.
 0. 0. 0. 0.
 0. 0. 0. 0.
 0. 0. 0. 0.
 0. 0. 0. 0.
 0. 0. 0. 0.
 0. 0. 0. 0.
 0. 0. 0. 0.
 0. 0. 0. 0.
 0. 0. 0. 0.
 0. 0. 0. 0.
 0. 0. 0. 0.
 0. 0. 0. 0.
 0. 0. 0. 0.
 0. 0. 0. 0.
 0. 0. 0. 0.
 0. 0. 0. 0.
 0. 0. 0. 0.
 0. 0. 0. 0.
 0. 0. 0. 0.
 0. 0. 0. 0.
 0. 0. 0. 0.
 0. 0. 0. 0.
 0. 0. 0. 0.
 0. 0. 0. 0.
 0. 0. 0. 0.
 0. 0. 0. 0.
 0. 0. 0. 0.
 0. 0. 0. 0.
 0. 0. 0. 0.
 0. 0. 0. 0.
 0. 0. 0. 0.
 0. 0. 0. 0.
 0. 0. 0. 0.
 0. 0. 0. 0.
 0. 0. 0. 0.
 0. 0. 0. 0.
 0. 0. 0. 0.
 0. 0. 0. 0.
 0. 0. 0. 0.
 0. 0. 0. 0.
 0. 0. 0. 0.
 0. 0. 0. 0.
 0. 0. 0. 0.
 0. 0. 0. 0.
 0. 0. 0. 0.
 0. 0. 0. 0.
 0. 0. 0. 0.
 0. 0. 0. 0.
 0. 0. 0. 0.
 0. 0. 0. 0.
 0. 0. 0. 0.
 0. 0. 0. 0.
 0. 0. 0. 0.
 0. 0. 0. 0.
 0. 0. 0. 0.
 0. 0. 0. 0.
 0. 0. 0. 0.
 0. 0. 0. 0.
 0. 0. 0. 0.
 0. 0. 0. 0.
 0. 0. 0. 0.
 0. 0. 0. 0.
 0. 0. 0. 0.
 0. 0. 0. 0.
 0. 0. 0. 0.
 0. 0. 0. 0.
 0. 0. 0. 0.
 0. 0. 0. 0.
 0. 0. 0. 0.
 0. 0. 0. 0.
 0. 0. 0. 0.
 0. 0. 0. 0.
 0. 0. 0. 0.
 0. 0. 0. 0.
 0. 0. 0. 0.
 0. 0. 0. 0.
 0. 0. 0. 0.
 0. 0. 0. 0.
 0. 0. 0. 0.
 0. 0. 0. 0.
 0. 0. 0. 0.
 0. 0. 0. 0.
 0. 0. 0. 0.
 0. 0. 0. 0.
 0. 0. 0. 0.
 0. 0. 0. 0.
 0. 0. 0. 0.
 0. 0.
   </PP_BETA.2>
   <PP_BETA.3
       type="real"
       size="1854"
       columns="4"
       index="3"
       angular_momentum="1"
       cutoff_radius_index=" 248"
       cutoff_radius="    2.4700000000E+00" >
   -4.4628254521E-10   -5.7317054255E-05   -2.2528448154E-04   -4.9198456772E-04
   -8.3766586137E-04   -1.2349094590E-03   -1.6488601639E-03   -2.0375208917E-03
   -2.3521082489E-03   -2.5374667784E-03   -2.5325389514E-03   -2.2708875871E-03
   -1.6812670094E-03   -6.8823889939E-04    7.8717151891E-04    2.8267836150E-03
    5.5145387290E-03    8.9357519342E-03    1.3176343526E-02    1.8322055738E-02
    2.4457660294E-02    3.1666162517E-02    4.0028007726E-02    4.9620295675E-02
    6.0516008763E-02    7.2783259656E-02    8.6484563852E-02    1.0167614258E-01
    1.1840726126E-01    1.3671960844E-01    1.5664671998E-01    1.7821345301E-01
    2.0143551349E-01    2.2631904153E-01    2.5286025758E-01    2.8104517250E-01
    3.1084936431E-01    3.4223782346E-01    3.7516486849E-01    4.0957413324E-01
    4.4539862628E-01    4.8256086295E-01    5.2097306954E-01    5.6053745914E-01
    6.0114657772E-01    6.4268371885E-01    6.8502340491E-01    7.2803193208E-01
    7.7156797605E-01    8.1548325511E-01    8.5962324646E-01    9.0382795168E-01
    9.4793270674E-01    9.9176903136E-01    1.0351655129E+00    1.0779487187E+00
    1.1199441321E+00    1.1609771050E+00    1.2008738220E+00    1.2394622693E+00
    1.2765732029E+00    1.3120411087E+00    1.3457051495E+00    1.3774100919E+00
    1.4070072074E+00    1.4343551416E+00    1.4593207463E+00    1.4817798678E+00
    1.5016180871E+00    1.5187314073E+00    1.5330268816E+00    1.5444231804E+00
    1.5528510910E+00    1.5582539475E+00    1.5605879880E+00    1.5598226361E+00
    1.5559407037E+00    1.5489385149E+00    1.5388259490E+00    1.5256264006E+00
    1.5093766595E+00    1.4901267076E+00    1.4679394354E+00    1.4428902783E+00
    1.4150667759E+00    1.3845680543E+00    1.3515042361E+00    1.3159957800E+00
    1.2781727536E+00    1.2381740444E+00    1.1961465110E+00    1.1522440819E+00
    1.1066268042E+00    1.0594598401E+00    1.0109124693E+00    9.6115682215E-01
    9.1036562101E-01    8.5871031119E-01    8.0636043659E-01    7.5348320889E-01
    7.0024288075E-01    6.4680096896E-01    5.9331469566E-01    5.3993150866E-01
    4.8680621596E-01    4.3408540930E-01    3.8190598310E-01    3.3040170317E-01
    2.7970003091E-01    2.2992241483E-01    1.8118399892E-01    1.3359339881E-01
    8.7252509172E-02    4.2256336436E-02   -1.3071420820E-03   -4.3357092257E-02
   -8.3819910508E-02   -1.2262928445E-01   -1.5972622695E-01   -1.9505908392E-01
   -2.2858351603E-01   -2.6026245497E-01   -2.9006603462E-01   -3.1797149783E-01
   -3.4396307949E-01   -3.6803186673E-01   -3.9017563710E-01   -4.1039867565E-01
   -4.2871157207E-01   -4.4513099891E-01   -4.5967947211E-01   -4.7238509504E-01
   -4.8328128751E-01   -4.9240650089E-01   -4.9980392093E-01   -5.0552115970E-01
   -5.0960993803E-01   -5.1212576009E-01   -5.1312758158E-01   -5.1267747300E-01
   -5.1084027970E-01   -5.0768328004E-01   -5.0327584330E-01   -4.9768908883E-01
   -4.9099554782E-01   -4.8326882917E-01   -4.7458329083E-01   -4.6501371792E-01
   -4.5463500883E-01   -4.4352187072E-01   -4.3174852519E-01   -4.1938842555E-01
   -4.0651398640E-01   -3.9319632652E-01   -3.7950502598E-01   -3.6550789785E-01
   -3.5127077573E-01   -3.3685731690E-01   -3.2232882233E-01   -3.0774407318E-01
   -2.9315918471E-01   -2.7862747721E-01   -2.6419936459E-01   -2.4992226004E-01
   -2.3584049932E-01   -2.2199528093E-01   -2.0842462338E-01   -1.9516333888E-01
   -1.8224302333E-01   -1.6969206194E-01   -1.5753565013E-01   -1.4579582888E-01
   -1.3449153418E-01   -1.2363865952E-01   -1.1325013105E-01   -1.0333599423E-01
   -9.3903511422E-02   -8.4957269381E-02   -7.6499295871E-02   -6.8529184310E-02
   -6.1044225716E-02   -5.4039546814E-02   -4.7508253431E-02   -4.1441578267E-02
   -3.5829031889E-02   -3.0658556304E-02   -2.5916679796E-02   -2.1588672509E-02
   -1.7658701528E-02   -1.4109984791E-02   -1.0924943075E-02   -8.0853487660E-03
   -5.5724716463E-03   -3.3672195126E-03   -1.4502747098E-03    1.9777578283E-04
    1.5963158742E-03    2.7645827927E-03    3.7215569528E-03    4.4858586050E-03
    5.0756535809E-03    5.5085658861E-03    5.8015998812E-03    5.9710703461E-03
    6.0325412254E-03    6.0007738574E-03    5.8896824877E-03    5.7123000947E-03
    5.4807513980E-03    5.2062347516E-03    4.8990124527E-03    4.5684077935E-03
    4.2228110083E-03    3.8696911907E-03    3.5156154122E-03    3.1662743520E-03
    2.8265129024E-03    2.5003670315E-03    2.1911047365E-03    1.9012713544E-03
    1.6327386930E-03    1.3867569811E-03    1.1640093983E-03    9.6466847383E-04
    7.8845387192E-04    6.3469054483E-04    5.0236752530E-04    3.9019594372E-04
    2.9666579202E-04    2.2010225558E-04    1.5871868189E-04    1.1066768958E-04
    7.4090197581E-05    4.7159001201E-05    2.8121111724E-05    1.5335615104E-05
    7.3163058703E-06    2.7208814645E-06    3.9673837383E-07   -6.0937732975E-07
   -8.8251333975E-07   -7.8690014617E-07   -4.9573831837E-07   -2.0202892670E-07
    1.9605784306E-09    6.8344653578E-08    4.8676113966E-08   -2.4636871811E-09
 0. 0. 0. 0.
 0. 0. 0. 0.
 0. 0. 0. 0.
 0. 0. 0. 0.
 0. 0. 0. 0.
 0. 0. 0. 0.
 0. 0. 0. 0.
 0. 0. 0. 0.
 0. 0. 0. 0.
 0. 0. 0. 0.
 0. 0. 0. 0.
 0. 0. 0. 0.
 0. 0. 0. 0.
 0. 0. 0. 0.
 0. 0. 0. 0.
 0. 0. 0. 0.
 0. 0. 0. 0.
 0. 0. 0. 0.
 0. 0. 0. 0.
 0. 0. 0. 0.
 0. 0. 0. 0.
 0. 0. 0. 0.
 0. 0. 0. 0.
 0. 0. 0. 0.
 0. 0. 0. 0.
 0. 0. 0. 0.
 0. 0. 0. 0.
 0. 0. 0. 0.
 0. 0. 0. 0.
 0. 0. 0. 0.
 0. 0. 0. 0.
 0. 0. 0. 0.
 0. 0. 0. 0.
 0. 0. 0. 0.
 0. 0. 0. 0.
 0. 0. 0. 0.
 0. 0. 0. 0.
 0. 0. 0. 0.
 0. 0. 0. 0.
 0. 0. 0. 0.
 0. 0. 0. 0.
 0. 0. 0. 0.
 0. 0. 0. 0.
 0. 0. 0. 0.
 0. 0. 0. 0.
 0. 0. 0. 0.
 0. 0. 0. 0.
 0. 0. 0. 0.
 0. 0. 0. 0.
 0. 0. 0. 0.
 0. 0. 0. 0.
 0. 0. 0. 0.
 0. 0. 0. 0.
 0. 0. 0. 0.
 0. 0. 0. 0.
 0. 0. 0. 0.
 0. 0. 0. 0.
 0. 0. 0. 0.
 0. 0. 0. 0.
 0. 0. 0. 0.
 0. 0. 0. 0.
 0. 0. 0. 0.
 0. 0. 0. 0.
 0. 0. 0. 0.
 0. 0. 0. 0.
 0. 0. 0. 0.
 0. 0. 0. 0.
 0. 0. 0. 0.
 0. 0. 0. 0.
 0. 0. 0. 0.
 0. 0. 0. 0.
 0. 0. 0. 0.
 0. 0. 0. 0.
 0. 0. 0. 0.
 0. 0. 0. 0.
 0. 0. 0. 0.
 0. 0. 0. 0.
 0. 0. 0. 0.
 0. 0. 0. 0.
 0. 0. 0. 0.
 0. 0. 0. 0.
 0. 0. 0. 0.
 0. 0. 0. 0.
 0. 0. 0. 0.
 0. 0. 0. 0.
 0. 0. 0. 0.
 0. 0. 0. 0.
 0. 0. 0. 0.
 0. 0. 0. 0.
 0. 0. 0. 0.
 0. 0. 0. 0.
 0. 0. 0. 0.
 0. 0. 0. 0.
 0. 0. 0. 0.
 0. 0. 0. 0.
 0. 0. 0. 0.
 0. 0. 0. 0.
 0. 0. 0. 0.
 0. 0. 0. 0.
 0. 0. 0. 0.
 0. 0. 0. 0.
 0. 0. 0. 0.
 0. 0. 0. 0.
 0. 0. 0. 0.
 0. 0. 0. 0.
 0. 0. 0. 0.
 0. 0. 0. 0.
 0. 0. 0. 0.
 0. 0. 0. 0.
 0. 0. 0. 0.
 0. 0. 0. 0.
 0. 0. 0. 0.
 0. 0. 0. 0.
 0. 0. 0. 0.
 0. 0. 0. 0.
 0. 0. 0. 0.
 0. 0. 0. 0.
 0. 0. 0. 0.
 0. 0. 0. 0.
 0. 0. 0. 0.
 0. 0. 0. 0.
 0. 0. 0. 0.
 0. 0. 0. 0.
 0. 0. 0. 0.
 0. 0. 0. 0.
 0. 0. 0. 0.
 0. 0. 0. 0.
 0. 0. 0. 0.
 0. 0. 0. 0.
 0. 0. 0. 0.
 0. 0. 0. 0.
 0. 0. 0. 0.
 0. 0. 0. 0.
 0. 0. 0. 0.
 0. 0. 0. 0.
 0. 0. 0. 0.
 0. 0. 0. 0.
 0. 0. 0. 0.
 0. 0. 0. 0.
 0. 0. 0. 0.
 0. 0. 0. 0.
 0. 0. 0. 0.
 0. 0. 0. 0.
 0. 0. 0. 0.
 0. 0. 0. 0.
 0. 0. 0. 0.
 0. 0. 0. 0.
 0. 0. 0. 0.
 0. 0. 0. 0.
 0. 0. 0. 0.
 0. 0. 0. 0.
 0. 0. 0. 0.
 0. 0. 0. 0.
 0. 0. 0. 0.
 0. 0. 0. 0.
 0. 0. 0. 0.
 0. 0. 0. 0.
 0. 0. 0. 0.
 0. 0. 0. 0.
 0. 0. 0. 0.
 0. 0. 0. 0.
 0. 0. 0. 0.
 0. 0. 0. 0.
 0. 0. 0. 0.
 0. 0. 0. 0.
 0. 0. 0. 0.
 0. 0. 0. 0.
 0. 0. 0. 0.
 0. 0. 0. 0.
 0. 0. 0. 0.
 0. 0. 0. 0.
 0. 0. 0. 0.
 0. 0. 0. 0.
 0. 0. 0. 0.
 0. 0. 0. 0.
 0. 0. 0. 0.
 0. 0. 0. 0.
 0. 0. 0. 0.
 0. 0. 0. 0.
 0. 0. 0. 0.
 0. 0. 0. 0.
 0. 0. 0. 0.
 0. 0. 0. 0.
 0. 0. 0. 0.
 0. 0. 0. 0.
 0. 0. 0. 0.
 0. 0. 0. 0.
 0. 0. 0. 0.
 0. 0. 0. 0.
 0. 0. 0. 0.
 0. 0. 0. 0.
 0. 0. 0. 0.
 0. 0. 0. 0.
 0. 0. 0. 0.
 0. 0. 0. 0.
 0. 0. 0. 0.
 0. 0. 0. 0.
 0. 0. 0. 0.
 0. 0. 0. 0.
 0. 0. 0. 0.
 0. 0. 0. 0.
 0. 0. 0. 0.
 0. 0. 0. 0.
 0. 0. 0. 0.
 0. 0. 0. 0.
 0. 0. 0. 0.
 0. 0. 0. 0.
 0. 0. 0. 0.
 0. 0. 0. 0.
 0. 0. 0. 0.
 0. 0. 0. 0.
 0. 0. 0. 0.
 0. 0. 0. 0.
 0. 0. 0. 0.
 0. 0. 0. 0.
 0. 0. 0. 0.
 0. 0. 0. 0.
 0. 0. 0. 0.
 0. 0. 0. 0.
 0. 0. 0. 0.
 0. 0. 0. 0.
 0. 0. 0. 0.
 0. 0. 0. 0.
 0. 0. 0. 0.
 0. 0. 0. 0.
 0. 0. 0. 0.
 0. 0. 0. 0.
 0. 0. 0. 0.
 0. 0. 0. 0.
 0. 0. 0. 0.
 0. 0. 0. 0.
 0. 0. 0. 0.
 0. 0. 0. 0.
 0. 0. 0. 0.
 0. 0. 0. 0.
 0. 0. 0. 0.
 0. 0. 0. 0.
 0. 0. 0. 0.
 0. 0. 0. 0.
 0. 0. 0. 0.
 0. 0. 0. 0.
 0. 0. 0. 0.
 0. 0. 0. 0.
 0. 0. 0. 0.
 0. 0. 0. 0.
 0. 0. 0. 0.
 0. 0. 0. 0.
 0. 0. 0. 0.
 0. 0. 0. 0.
 0. 0. 0. 0.
 0. 0. 0. 0.
 0. 0. 0. 0.
 0. 0. 0. 0.
 0. 0. 0. 0.
 0. 0. 0. 0.
 0. 0. 0. 0.
 0. 0. 0. 0.
 0. 0. 0. 0.
 0. 0. 0. 0.
 0. 0. 0. 0.
 0. 0. 0. 0.
 0. 0. 0. 0.
 0. 0. 0. 0.
 0. 0. 0. 0.
 0. 0. 0. 0.
 0. 0. 0. 0.
 0. 0. 0. 0.
 0. 0. 0. 0.
 0. 0. 0. 0.
 0. 0. 0. 0.
 0. 0. 0. 0.
 0. 0. 0. 0.
 0. 0. 0. 0.
 0. 0. 0. 0.
 0. 0. 0. 0.
 0. 0. 0. 0.
 0. 0. 0. 0.
 0. 0. 0. 0.
 0. 0. 0. 0.
 0. 0. 0. 0.
 0. 0. 0. 0.
 0. 0. 0. 0.
 0. 0. 0. 0.
 0. 0. 0. 0.
 0. 0. 0. 0.
 0. 0. 0. 0.
 0. 0. 0. 0.
 0. 0. 0. 0.
 0. 0. 0. 0.
 0. 0. 0. 0.
 0. 0. 0. 0.
 0. 0. 0. 0.
 0. 0. 0. 0.
 0. 0. 0. 0.
 0. 0. 0. 0.
 0. 0. 0. 0.
 0. 0. 0. 0.
 0. 0. 0. 0.
 0. 0. 0. 0.
 0. 0. 0. 0.
 0. 0. 0. 0.
 0. 0. 0. 0.
 0. 0. 0. 0.
 0. 0. 0. 0.
 0. 0. 0. 0.
 0. 0. 0. 0.
 0. 0. 0. 0.
 0. 0. 0. 0.
 0. 0. 0. 0.
 0. 0. 0. 0.
 0. 0. 0. 0.
 0. 0. 0. 0.
 0. 0. 0. 0.
 0. 0. 0. 0.
 0. 0. 0. 0.
 0. 0. 0. 0.
 0. 0. 0. 0.
 0. 0. 0. 0.
 0. 0. 0. 0.
 0. 0. 0. 0.
 0. 0. 0. 0.
 0. 0. 0. 0.
 0. 0. 0. 0.
 0. 0. 0. 0.
 0. 0. 0. 0.
 0. 0. 0. 0.
 0. 0. 0. 0.
 0. 0. 0. 0.
 0. 0. 0. 0.
 0. 0. 0. 0.
 0. 0. 0. 0.
 0. 0. 0. 0.
 0. 0. 0. 0.
 0. 0. 0. 0.
 0. 0. 0. 0.
 0. 0. 0. 0.
 0. 0. 0. 0.
 0. 0. 0. 0.
 0. 0. 0. 0.
 0. 0. 0. 0.
 0. 0. 0. 0.
 0. 0. 0. 0.
 0. 0. 0. 0.
 0. 0. 0. 0.
 0. 0. 0. 0.
 0. 0. 0. 0.
 0. 0. 0. 0.
 0. 0. 0. 0.
 0. 0. 0. 0.
 0. 0. 0. 0.
 0. 0. 0. 0.
 0. 0. 0. 0.
 0. 0. 0. 0.
 0. 0. 0. 0.
 0. 0. 0. 0.
 0. 0. 0. 0.
 0. 0. 0. 0.
 0. 0. 0. 0.
 0. 0. 0. 0.
 0. 0. 0. 0.
 0. 0. 0. 0.
 0. 0. 0. 0.
 0. 0. 0. 0.
 0. 0. 0. 0.
 0. 0. 0. 0.
 0. 0. 0. 0.
 0. 0. 0. 0.
 0. 0. 0. 0.
 0. 0. 0. 0.
 0. 0. 0. 0.
 0. 0. 0. 0.
 0. 0. 0. 0.
 0. 0. 0. 0.
 0. 0. 0. 0.
 0. 0. 0. 0.
 0. 0. 0. 0.
 0. 0. 0. 0.
 0. 0. 0. 0.
 0. 0. 0. 0.
 0. 0. 0. 0.
 0. 0. 0. 0.
 0. 0. 0. 0.
 0. 0. 0. 0.
 0. 0. 0. 0.
 0. 0. 0. 0.
 0. 0. 0. 0.
 0. 0. 0. 0.
 0. 0. 0. 0.
 0. 0. 0. 0.
 0. 0. 0. 0.
 0. 0. 0. 0.
 0. 0. 0. 0.
 0. 0. 0. 0.
 0. 0. 0. 0.
 0. 0. 0. 0.
 0. 0. 0. 0.
 0. 0. 0. 0.
 0. 0. 0. 0.
 0. 0. 0. 0.
 0. 0. 0. 0.
 0. 0. 0. 0.
 0. 0.
   </PP_BETA.3>
   <PP_BETA.4
       type="real"
       size="1854"
       columns="4"
       index="4"
       angular_momentum="1"
       cutoff_radius_index=" 248"
       cutoff_radius="    2.4700000000E+00" >
    3.0915297405E-10   -2.4873404890E-04   -9.9557353634E-04   -2.2424137008E-03
   -3.9923574921E-03   -6.2496324765E-03   -9.0194756498E-03   -1.2307987296E-02
   -1.6121955339E-02   -2.0468651919E-02   -2.5355604242E-02   -3.0790341975E-02
   -3.6780123738E-02   -4.3331645472E-02   -5.0450733658E-02   -5.8142026541E-02
   -6.6408646690E-02   -7.5251868336E-02   -8.4670783049E-02   -9.4661967354E-02
   -1.0521915599E-01   -1.1633292445E-01   -1.2799038451E-01   -1.4017489628E-01
   -1.5286580046E-01   -1.6603817399E-01   -1.7966261261E-01   -1.9370504330E-01
   -2.0812656956E-01   -2.2288335219E-01   -2.3792652803E-01   -2.5320216882E-01
   -2.6865128212E-01   -2.8420985562E-01   -2.9980894639E-01   -3.1537481564E-01
   -3.3082910967E-01   -3.4608908716E-01   -3.6106789242E-01   -3.7567487411E-01
   -3.8981594840E-01   -4.0339400514E-01   -4.1630935525E-01   -4.2846021727E-01
   -4.3974324047E-01   -4.5005406173E-01   -4.5928789292E-01   -4.6734013531E-01
   -4.7410701727E-01   -4.7948625096E-01   -4.8337770398E-01   -4.8568408115E-01
   -4.8631161190E-01   -4.8517073818E-01   -4.8217679806E-01   -4.7725069982E-01
   -4.7031958128E-01   -4.6131744938E-01   -4.5018579474E-01   -4.3687417606E-01
   -4.2134076953E-01   -4.0355287815E-01   -3.8348739647E-01   -3.6113122621E-01
   -3.3648163837E-01   -3.0954657813E-01   -2.8034490862E-01   -2.4890659046E-01
   -2.1527279391E-01   -1.7949594131E-01   -1.4163967746E-01   -1.0177876631E-01
   -5.9998912863E-02   -1.6396509195E-02    2.8921695380E-02    7.5839000024E-02
    1.2422923320E-01    1.7395730748E-01    2.2487984659E-01    2.7684588274E-01
    3.2969762140E-01    3.8327127064E-01    4.3739793150E-01    4.9190454535E-01
    5.4661489420E-01    6.0135064897E-01    6.5593246107E-01    7.1018109172E-01
    7.6391857358E-01    8.1696939902E-01    8.6916172886E-01    9.2032861638E-01
    9.7030923923E-01    1.0189501121E+00    1.0661063974E+00    1.1116426954E+00
    1.1554314610E+00    1.1973511000E+00    1.2372861203E+00    1.2751276197E+00
    1.3107729534E+00    1.3441288441E+00    1.3751069639E+00    1.4036028926E+00
    1.4295659137E+00    1.4529422202E+00    1.4736698468E+00    1.4917041387E+00
    1.5070072474E+00    1.5195502848E+00    1.5293132109E+00    1.5362848430E+00
    1.5404628518E+00    1.5418537203E+00    1.5404726701E+00    1.5363435545E+00
    1.5294987199E+00    1.5199788356E+00    1.5078326925E+00    1.4931169718E+00
    1.4758959843E+00    1.4562413820E+00    1.4342318430E+00    1.4099527301E+00
    1.3834957260E+00    1.3549584464E+00    1.3244440309E+00    1.2920607164E+00
    1.2579213925E+00    1.2221431418E+00    1.1848467670E+00    1.1461563072E+00
    1.1061985451E+00    1.0651025070E+00    1.0229989592E+00    9.8001990116E-01
    9.3629805917E-01    8.9196638226E-01    8.4715754222E-01    8.0200344052E-01
    7.5663472386E-01    7.1118031072E-01    6.6576693080E-01    6.2051867926E-01
    5.7555658787E-01    5.3099821449E-01    4.8695725289E-01    4.4354316428E-01
    4.0086083189E-01    3.5901024020E-01    3.1808617967E-01    2.7817797823E-01
    2.3936926031E-01    2.0173773412E-01    1.6535500800E-01    1.3028643591E-01
    9.6590992885E-02    6.4321179913E-02    3.3522959203E-02    4.2357185548E-03
   -2.3507734246E-02   -4.9681148533E-02   -7.4264778920E-02   -9.7245306067E-02
   -1.1861573011E-01   -1.3837523832E-01   -1.5652904746E-01   -1.7308822250E-01
   -1.8806947255E-01   -2.0149492561E-01   -2.1339188340E-01   -2.2379255795E-01
   -2.3273379135E-01   -2.4025676050E-01   -2.4640666836E-01   -2.5123242372E-01
   -2.5478631087E-01   -2.5712365147E-01   -2.5830246000E-01   -2.5838309488E-01
   -2.5742790712E-01   -2.5550088798E-01   -2.5266731809E-01   -2.4899341882E-01
   -2.4454600895E-01   -2.3939216674E-01   -2.3359890072E-01   -2.2723282917E-01
   -2.2035987103E-01   -2.1304494900E-01   -2.0535170602E-01   -1.9734223747E-01
   -1.8907683798E-01   -1.8061376725E-01   -1.7200903173E-01   -1.6331618704E-01
   -1.5458615856E-01   -1.4586708257E-01   -1.3720416849E-01   -1.2863958040E-01
   -1.2021234209E-01   -1.1195826049E-01   -1.0390987275E-01   -9.6096412812E-02
   -8.8543798769E-02   -8.1274642021E-02   -7.4308273540E-02   -6.7660792520E-02
   -6.1345131053E-02   -5.5371137514E-02   -4.9745677291E-02   -4.4472747391E-02
   -3.9553608178E-02   -3.4986926692E-02   -3.0768933091E-02   -2.6893588487E-02
   -2.3352761290E-02   -2.0136413212E-02   -1.7232791332E-02   -1.4628625813E-02
   -1.2309331707E-02   -1.0259213464E-02   -8.4616700794E-03   -6.8994002060E-03
   -5.5546058840E-03   -4.4091917557E-03   -3.4449614463E-03   -2.6438070070E-03
   -1.9878904319E-03   -1.4598197208E-03   -1.0428118124E-03   -7.2084656600E-04
   -4.7881126741E-04   -3.0262674990E-04   -1.7936833376E-04   -9.7371116555E-05
   -4.6386681362E-05   -1.7402456052E-05   -2.8418335617E-06    3.4443764747E-06
    5.1883662332E-06    4.6730873736E-06    2.9515815124E-06    1.2043990874E-06
   -1.1609619330E-08   -4.0378755081E-07   -2.8691635136E-07    1.4763925484E-08
 0. 0. 0. 0.
 0. 0. 0. 0.
 0. 0. 0. 0.
 0. 0. 0. 0.
 0. 0. 0. 0.
 0. 0. 0. 0.
 0. 0. 0. 0.
 0. 0. 0. 0.
 0. 0. 0. 0.
 0. 0. 0. 0.
 0. 0. 0. 0.
 0. 0. 0. 0.
 0. 0. 0. 0.
 0. 0. 0. 0.
 0. 0. 0. 0.
 0. 0. 0. 0.
 0. 0. 0. 0.
 0. 0. 0. 0.
 0. 0. 0. 0.
 0. 0. 0. 0.
 0. 0. 0. 0.
 0. 0. 0. 0.
 0. 0. 0. 0.
 0. 0. 0. 0.
 0. 0. 0. 0.
 0. 0. 0. 0.
 0. 0. 0. 0.
 0. 0. 0. 0.
 0. 0. 0. 0.
 0. 0. 0. 0.
 0. 0. 0. 0.
 0. 0. 0. 0.
 0. 0. 0. 0.
 0. 0. 0. 0.
 0. 0. 0. 0.
 0. 0. 0. 0.
 0. 0. 0. 0.
 0. 0. 0. 0.
 0. 0. 0. 0.
 0. 0. 0. 0.
 0. 0. 0. 0.
 0. 0. 0. 0.
 0. 0. 0. 0.
 0. 0. 0. 0.
 0. 0. 0. 0.
 0. 0. 0. 0.
 0. 0. 0. 0.
 0. 0. 0. 0.
 0. 0. 0. 0.
 0. 0. 0. 0.
 0. 0. 0. 0.
 0. 0. 0. 0.
 0. 0. 0. 0.
 0. 0. 0. 0.
 0. 0. 0. 0.
 0. 0. 0. 0.
 0. 0. 0. 0.
 0. 0. 0. 0.
 0. 0. 0. 0.
 0. 0. 0. 0.
 0. 0. 0. 0.
 0. 0. 0. 0.
 0. 0. 0. 0.
 0. 0. 0. 0.
 0. 0. 0. 0.
 0. 0. 0. 0.
 0. 0. 0. 0.
 0. 0. 0. 0.
 0. 0. 0. 0.
 0. 0. 0. 0.
 0. 0. 0. 0.
 0. 0. 0. 0.
 0. 0. 0. 0.
 0. 0. 0. 0.
 0. 0. 0. 0.
 0. 0. 0. 0.
 0. 0. 0. 0.
 0. 0. 0. 0.
 0. 0. 0. 0.
 0. 0. 0. 0.
 0. 0. 0. 0.
 0. 0. 0. 0.
 0. 0. 0. 0.
 0. 0. 0. 0.
 0. 0. 0. 0.
 0. 0. 0. 0.
 0. 0. 0. 0.
 0. 0. 0. 0.
 0. 0. 0. 0.
 0. 0. 0. 0.
 0. 0. 0. 0.
 0. 0. 0. 0.
 0. 0. 0. 0.
 0. 0. 0. 0.
 0. 0. 0. 0.
 0. 0. 0. 0.
 0. 0. 0. 0.
 0. 0. 0. 0.
 0. 0. 0. 0.
 0. 0. 0. 0.
 0. 0. 0. 0.
 0. 0. 0. 0.
 0. 0. 0. 0.
 0. 0. 0. 0.
 0. 0. 0. 0.
 0. 0. 0. 0.
 0. 0. 0. 0.
 0. 0. 0. 0.
 0. 0. 0. 0.
 0. 0. 0. 0.
 0. 0. 0. 0.
 0. 0. 0. 0.
 0. 0. 0. 0.
 0. 0. 0. 0.
 0. 0. 0. 0.
 0. 0. 0. 0.
 0. 0. 0. 0.
 0. 0. 0. 0.
 0. 0. 0. 0.
 0. 0. 0. 0.
 0. 0. 0. 0.
 0. 0. 0. 0.
 0. 0. 0. 0.
 0. 0. 0. 0.
 0. 0. 0. 0.
 0. 0. 0. 0.
 0. 0. 0. 0.
 0. 0. 0. 0.
 0. 0. 0. 0.
 0. 0. 0. 0.
 0. 0. 0. 0.
 0. 0. 0. 0.
 0. 0. 0. 0.
 0. 0. 0. 0.
 0. 0. 0. 0.
 0. 0. 0. 0.
 0. 0. 0. 0.
 0. 0. 0. 0.
 0. 0. 0. 0.
 0. 0. 0. 0.
 0. 0. 0. 0.
 0. 0. 0. 0.
 0. 0. 0. 0.
 0. 0. 0. 0.
 0. 0. 0. 0.
 0. 0. 0. 0.
 0. 0. 0. 0.
 0. 0. 0. 0.
 0. 0. 0. 0.
 0. 0. 0. 0.
 0. 0. 0. 0.
 0. 0. 0. 0.
 0. 0. 0. 0.
 0. 0. 0. 0.
 0. 0. 0. 0.
 0. 0. 0. 0.
 0. 0. 0. 0.
 0. 0. 0. 0.
 0. 0. 0. 0.
 0. 0. 0. 0.
 0. 0. 0. 0.
 0. 0. 0. 0.
 0. 0. 0. 0.
 0. 0. 0. 0.
 0. 0. 0. 0.
 0. 0. 0. 0.
 0. 0. 0. 0.
 0. 0. 0. 0.
 0. 0. 0. 0.
 0. 0. 0. 0.
 0. 0. 0. 0.
 0. 0. 0. 0.
 0. 0. 0. 0.
 0. 0. 0. 0.
 0. 0. 0. 0.
 0. 0. 0. 0.
 0. 0. 0. 0.
 0. 0. 0. 0.
 0. 0. 0. 0.
 0. 0. 0. 0.
 0. 0. 0. 0.
 0. 0. 0. 0.
 0. 0. 0. 0.
 0. 0. 0. 0.
 0. 0. 0. 0.
 0. 0. 0. 0.
 0. 0. 0. 0.
 0. 0. 0. 0.
 0. 0. 0. 0.
 0. 0. 0. 0.
 0. 0. 0. 0.
 0. 0. 0. 0.
 0. 0. 0. 0.
 0. 0. 0. 0.
 0. 0. 0. 0.
 0. 0. 0. 0.
 0. 0. 0. 0.
 0. 0. 0. 0.
 0. 0. 0. 0.
 0. 0. 0. 0.
 0. 0. 0. 0.
 0. 0. 0. 0.
 0. 0. 0. 0.
 0. 0. 0. 0.
 0. 0. 0. 0.
 0. 0. 0. 0.
 0. 0. 0. 0.
 0. 0. 0. 0.
 0. 0. 0. 0.
 0. 0. 0. 0.
 0. 0. 0. 0.
 0. 0. 0. 0.
 0. 0. 0. 0.
 0. 0. 0. 0.
 0. 0. 0. 0.
 0. 0. 0. 0.
 0. 0. 0. 0.
 0. 0. 0. 0.
 0. 0. 0. 0.
 0. 0. 0. 0.
 0. 0. 0. 0.
 0. 0. 0. 0.
 0. 0. 0. 0.
 0. 0. 0. 0.
 0. 0. 0. 0.
 0. 0. 0. 0.
 0. 0. 0. 0.
 0. 0. 0. 0.
 0. 0. 0. 0.
 0. 0. 0. 0.
 0. 0. 0. 0.
 0. 0. 0. 0.
 0. 0. 0. 0.
 0. 0. 0. 0.
 0. 0. 0. 0.
 0. 0. 0. 0.
 0. 0. 0. 0.
 0. 0. 0. 0.
 0. 0. 0. 0.
 0. 0. 0. 0.
 0. 0. 0. 0.
 0. 0. 0. 0.
 0. 0. 0. 0.
 0. 0. 0. 0.
 0. 0. 0. 0.
 0. 0. 0. 0.
 0. 0. 0. 0.
 0. 0. 0. 0.
 0. 0. 0. 0.
 0. 0. 0. 0.
 0. 0. 0. 0.
 0. 0. 0. 0.
 0. 0. 0. 0.
 0. 0. 0. 0.
 0. 0. 0. 0.
 0. 0. 0. 0.
 0. 0. 0. 0.
 0. 0. 0. 0.
 0. 0. 0. 0.
 0. 0. 0. 0.
 0. 0. 0. 0.
 0. 0. 0. 0.
 0. 0. 0. 0.
 0. 0. 0. 0.
 0. 0. 0. 0.
 0. 0. 0. 0.
 0. 0. 0. 0.
 0. 0. 0. 0.
 0. 0. 0. 0.
 0. 0. 0. 0.
 0. 0. 0. 0.
 0. 0. 0. 0.
 0. 0. 0. 0.
 0. 0. 0. 0.
 0. 0. 0. 0.
 0. 0. 0. 0.
 0. 0. 0. 0.
 0. 0. 0. 0.
 0. 0. 0. 0.
 0. 0. 0. 0.
 0. 0. 0. 0.
 0. 0. 0. 0.
 0. 0. 0. 0.
 0. 0. 0. 0.
 0. 0. 0. 0.
 0. 0. 0. 0.
 0. 0. 0. 0.
 0. 0. 0. 0.
 0. 0. 0. 0.
 0. 0. 0. 0.
 0. 0. 0. 0.
 0. 0. 0. 0.
 0. 0. 0. 0.
 0. 0. 0. 0.
 0. 0. 0. 0.
 0. 0. 0. 0.
 0. 0. 0. 0.
 0. 0. 0. 0.
 0. 0. 0. 0.
 0. 0. 0. 0.
 0. 0. 0. 0.
 0. 0. 0. 0.
 0. 0. 0. 0.
 0. 0. 0. 0.
 0. 0. 0. 0.
 0. 0. 0. 0.
 0. 0. 0. 0.
 0. 0. 0. 0.
 0. 0. 0. 0.
 0. 0. 0. 0.
 0. 0. 0. 0.
 0. 0. 0. 0.
 0. 0. 0. 0.
 0. 0. 0. 0.
 0. 0. 0. 0.
 0. 0. 0. 0.
 0. 0. 0. 0.
 0. 0. 0. 0.
 0. 0. 0. 0.
 0. 0. 0. 0.
 0. 0. 0. 0.
 0. 0. 0. 0.
 0. 0. 0. 0.
 0. 0. 0. 0.
 0. 0. 0. 0.
 0. 0. 0. 0.
 0. 0. 0. 0.
 0. 0. 0. 0.
 0. 0. 0. 0.
 0. 0. 0. 0.
 0. 0. 0. 0.
 0. 0. 0. 0.
 0. 0. 0. 0.
 0. 0. 0. 0.
 0. 0. 0. 0.
 0. 0. 0. 0.
 0. 0. 0. 0.
 0. 0. 0. 0.
 0. 0. 0. 0.
 0. 0. 0. 0.
 0. 0. 0. 0.
 0. 0. 0. 0.
 0. 0. 0. 0.
 0. 0. 0. 0.
 0. 0. 0. 0.
 0. 0. 0. 0.
 0. 0. 0. 0.
 0. 0. 0. 0.
 0. 0. 0. 0.
 0. 0. 0. 0.
 0. 0. 0. 0.
 0. 0. 0. 0.
 0. 0. 0. 0.
 0. 0. 0. 0.
 0. 0. 0. 0.
 0. 0. 0. 0.
 0. 0. 0. 0.
 0. 0. 0. 0.
 0. 0. 0. 0.
 0. 0. 0. 0.
 0. 0. 0. 0.
 0. 0. 0. 0.
 0. 0. 0. 0.
 0. 0. 0. 0.
 0. 0. 0. 0.
 0. 0. 0. 0.
 0. 0. 0. 0.
 0. 0. 0. 0.
 0. 0. 0. 0.
 0. 0. 0. 0.
 0. 0. 0. 0.
 0. 0. 0. 0.
 0. 0. 0. 0.
 0. 0. 0. 0.
 0. 0. 0. 0.
 0. 0. 0. 0.
 0. 0. 0. 0.
 0. 0. 0. 0.
 0. 0. 0. 0.
 0. 0. 0. 0.
 0. 0. 0. 0.
 0. 0. 0. 0.
 0. 0. 0. 0.
 0. 0. 0. 0.
 0. 0. 0. 0.
 0. 0. 0. 0.
 0. 0. 0. 0.
 0. 0. 0. 0.
 0. 0. 0. 0.
 0. 0. 0. 0.
 0. 0. 0. 0.
 0. 0. 0. 0.
 0. 0. 0. 0.
 0. 0. 0. 0.
 0. 0. 0. 0.
 0. 0. 0. 0.
 0. 0. 0. 0.
 0. 0. 0. 0.
 0. 0. 0. 0.
 0. 0. 0. 0.
 0. 0. 0. 0.
 0. 0.
   </PP_BETA.4>
   <PP_DIJ type="real"  size="  16" columns="4">
    5.0477087797E+00    0.0000000000E+00    0.0000000000E+00    0.0000000000E+00
    0.0000000000E+00   -8.6926019483E-01    0.0000000000E+00    0.0000000000E+00
    0.0000000000E+00    0.0000000000E+00   -6.6035576350E+00    0.0000000000E+00
    0.0000000000E+00    0.0000000000E+00    0.0000000000E+00   -4.7063497977E+00
   </PP_DIJ>
 </PP_NONLOCAL>
 <PP_PSWFC>
   <PP_CHI.1
       type="real"
       size="1854"
       columns="4"
       index="1"
       occupation=" 2.000"
       pseudo_energy="   -0.7900769146E+01"
       label="2S"
       l="0" >
   -1.5111467633E-11    4.0833189969E-02    8.1615004162E-02    1.2229418386E-01
    1.6281970422E-01    2.0314089029E-01    2.4320753193E-01    2.8296999737E-01
    3.2237934488E-01    3.6138743241E-01    3.9994702466E-01    4.3801189744E-01
    4.7553693886E-01    5.1247824704E-01    5.4879322416E-01    5.8444066644E-01
    6.1938084976E-01    6.5357561080E-01    6.8698842330E-01    7.1958446928E-01
    7.5133070497E-01    7.8219592134E-01    8.1215079896E-01    8.4116795703E-01
    8.6922199657E-01    8.9628953749E-01    9.2234924963E-01    9.4738187752E-01
    9.7137025899E-01    9.9429933750E-01    1.0161561682E+00    1.0369299181E+00
    1.0566118593E+00    1.0751953573E+00    1.0926758526E+00    1.1090508366E+00
    1.1243198217E+00    1.1384843068E+00    1.1515477364E+00    1.1635154553E+00
    1.1743946582E+00    1.1841943351E+00    1.1929252122E+00    1.2005996889E+00
    1.2072317708E+00    1.2128370000E+00    1.2174323819E+00    1.2210363094E+00
    1.2236684848E+00    1.2253498395E+00    1.2261024525E+00    1.2259494672E+00
    1.2249150070E+00    1.2230240912E+00    1.2203025494E+00    1.2167769368E+00
    1.2124744493E+00    1.2074228398E+00    1.2016503348E+00    1.1951855527E+00
    1.1880574234E+00    1.1802951093E+00    1.1719279290E+00    1.1629852821E+00
    1.1534965777E+00    1.1434911639E+00    1.1329982614E+00    1.1220468988E+00
    1.1106658515E+00    1.0988835835E+00    1.0867281919E+00    1.0742273557E+00
    1.0614082862E+00    1.0482976819E+00    1.0349216868E+00    1.0213058505E+00
    1.0074750937E+00    9.9345367484E-01    9.7926516172E-01    9.6493240517E-01
    9.5047751630E-01    9.3592184673E-01    9.2128597184E-01    9.0658967689E-01
    8.9185194601E-01    8.7709095397E-01    8.6232406057E-01    8.4756780764E-01
    8.3283791847E-01    8.1814929972E-01    8.0351604551E-01    7.8895144375E-01
    7.7446798453E-01    7.6007737050E-01    7.4579052912E-01    7.3161762668E-01
    7.1756808399E-01    7.0365059359E-01    6.8987313850E-01    6.7624301221E-01
    6.6276684000E-01    6.4945060132E-01    6.3629965326E-01    6.2331875481E-01
    6.1051209202E-01    5.9788330377E-01    5.8543550804E-01    5.7317132869E-01
    5.6109292246E-01    5.4920200624E-01    5.3749988431E-01    5.2598747557E-01
    5.1466534052E-01    5.0353370796E-01    4.9259250125E-01    4.8184136394E-01
    4.7127968476E-01    4.6090662183E-01    4.5072112585E-01    4.4072196237E-01
    4.3090773283E-01    4.2127689444E-01    4.1182777868E-01    4.0255860843E-01
    3.9346751353E-01    3.8455254495E-01    3.7581168712E-01    3.6724286882E-01
    3.5884397222E-01    3.5061284025E-01    3.4254728225E-01    3.3464507784E-01
    3.2690397957E-01    3.1932171546E-01    3.1189599025E-01    3.0462448733E-01
    2.9750487432E-01    2.9053480702E-01    2.8371193281E-01    2.7703389385E-01
    2.7049833010E-01    2.6410288209E-01    2.5784519362E-01    2.5172291413E-01
    2.4573370101E-01    2.3987522172E-01    2.3414515572E-01    2.2854119632E-01
    2.2306105230E-01    2.1770244952E-01    2.1246313230E-01    2.0734086470E-01
    2.0233343176E-01    1.9743864055E-01    1.9265432115E-01    1.8797832755E-01
    1.8340853845E-01    1.7894285796E-01    1.7457921625E-01    1.7031557011E-01
    1.6614990344E-01    1.6208022766E-01    1.5810458212E-01    1.5422103434E-01
    1.5042768030E-01    1.4672264467E-01    1.4310408088E-01    1.3957017133E-01
    1.3611912738E-01    1.3274918941E-01    1.2945862683E-01    1.2624573799E-01
    1.2310885019E-01    1.2004631950E-01    1.1705653068E-01    1.1413789704E-01
    1.1128886023E-01    1.0850789007E-01    1.0579348435E-01    1.0314416858E-01
    1.0055849577E-01    9.8035046151E-02    9.5572426899E-02    9.3169271875E-02
    9.0824241320E-02    8.8536021545E-02    8.6303324631E-02    8.4124888098E-02
    8.1999474588E-02    7.9925871527E-02    7.7902890793E-02    7.5929368371E-02
    7.4004164010E-02    7.2126160873E-02    7.0294265193E-02    6.8507405912E-02
    6.6764534339E-02    6.5064623786E-02    6.3406669221E-02    6.1789686910E-02
    6.0212714067E-02    5.8674808500E-02    5.7175048257E-02    5.5712531281E-02
    5.4286375061E-02    5.2895716282E-02    5.1539710486E-02    5.0217531730E-02
    4.8928372248E-02    4.7671442112E-02    4.6445968905E-02    4.5251197389E-02
    4.4086389181E-02    4.2950822428E-02    4.1843791492E-02    4.0764606634E-02
    3.9712593702E-02    3.8687093825E-02    3.7687463111E-02    3.6713072346E-02
    3.5763306701E-02    3.4837565438E-02    3.3935261629E-02    3.3055821867E-02
    3.2198685995E-02    3.1363306823E-02    3.0549149869E-02    2.9755693084E-02
    2.8982426598E-02    2.8228852457E-02    2.7494484375E-02    2.6778847484E-02
    2.6081478090E-02    2.5401923430E-02    2.4739741442E-02    2.4094500529E-02
    2.3465779332E-02    2.2853166506E-02    2.2256260503E-02    2.1674669355E-02
    2.1108010463E-02    2.0555910387E-02    2.0018004647E-02    1.9493937521E-02
    1.8983361846E-02    1.8485938832E-02    1.8001337868E-02    1.7529236343E-02
    1.7069319458E-02    1.6621280055E-02    1.6184818438E-02    1.5759642207E-02
    1.5345466087E-02    1.4942011768E-02    1.4549007741E-02    1.4166189144E-02
    1.3793297609E-02    1.3430081105E-02    1.3076293801E-02    1.2731695911E-02
    1.2396053562E-02    1.2069138649E-02    1.1750728701E-02    1.1440606754E-02
    1.1138561213E-02    1.0844385731E-02    1.0557879083E-02    1.0278845045E-02
    1.0007092276E-02    9.7424341984E-03    9.4846888900E-03    9.2336789683E-03
    8.9892314839E-03    8.7511778138E-03    8.5193535580E-03    8.2935984374E-03
    8.0737561946E-03    7.8596744976E-03    7.6512048439E-03    7.4482024687E-03
    7.2505262537E-03    7.0580386389E-03    6.8706055362E-03    6.6880962444E-03
    6.5103833670E-03    6.3373427313E-03    6.1688533097E-03    6.0047971426E-03
    5.8450592633E-03    5.6895276241E-03    5.5380930251E-03    5.3906490437E-03
    5.2470919661E-03    5.1073207209E-03    4.9712368133E-03    4.8387442614E-03
    4.7097495343E-03    4.5841614909E-03    4.4618913208E-03    4.3428524865E-03
    4.2269606661E-03    4.1141336993E-03    4.0042915323E-03    3.8973561659E-03
    3.7932516040E-03    3.6919038033E-03    3.5932406245E-03    3.4971917848E-03
    3.4036888108E-03    3.3126649935E-03    3.2240553436E-03    3.1377965484E-03
    3.0538269297E-03    2.9720864021E-03    2.8925164332E-03    2.8150600042E-03
    2.7396615718E-03    2.6662670305E-03    2.5948236767E-03    2.5252801726E-03
    2.4575865118E-03    2.3916939856E-03    2.3275551498E-03    2.2651237927E-03
    2.2043549036E-03    2.1452046424E-03    2.0876303093E-03    2.0315903162E-03
    1.9770441583E-03    1.9239523858E-03    1.8722765777E-03    1.8219793149E-03
    1.7730241550E-03    1.7253756068E-03    1.6789991062E-03    1.6338609924E-03
    1.5899284846E-03    1.5471696593E-03    1.5055534284E-03    1.4650495180E-03
    1.4256284467E-03    1.3872615058E-03    1.3499207391E-03    1.3135789235E-03
    1.2782095502E-03    1.2437868062E-03    1.2102855562E-03    1.1776813253E-03
    1.1459502816E-03    1.1150692199E-03    1.0850155452E-03    1.0557672569E-03
    1.0273029337E-03    9.9960171806E-04    9.7264330198E-04    9.4640791256E-04
    9.2087629811E-04    8.9602971457E-04    8.7184991231E-04    8.4831912332E-04
    8.2542004861E-04    8.0313584600E-04    7.8145011820E-04    7.6034690121E-04
    7.3981065306E-04    7.1982624275E-04    7.0037893949E-04    6.8145440224E-04
    6.6303866964E-04    6.4511814994E-04    6.2767961138E-04    6.1071017275E-04
    5.9419729424E-04    5.7812876850E-04    5.6249271188E-04    5.4727755595E-04
    5.3247203925E-04    5.1806519925E-04    5.0404636447E-04    4.9040514685E-04
    4.7713143424E-04    4.6421538327E-04    4.5164741220E-04    4.3941819405E-04
    4.2751864986E-04    4.1593994222E-04    4.0467346889E-04    3.9371085661E-04
    3.8304395503E-04    3.7266483083E-04    3.6256576205E-04    3.5273923250E-04
    3.4317792629E-04    3.3387472254E-04    3.2482269026E-04    3.1601508335E-04
    3.0744533567E-04    2.9910705630E-04    2.9099402490E-04    2.8310018715E-04
    2.7541965050E-04    2.6794667975E-04    2.6067569291E-04    2.5360125716E-04
    2.4671808490E-04    2.4002102990E-04    2.3350508356E-04    2.2716537121E-04
    2.2099714860E-04    2.1499579843E-04    2.0915682701E-04    2.0347586092E-04
    1.9794864384E-04    1.9257103343E-04    1.8733899834E-04    1.8224861523E-04
    1.7729606588E-04    1.7247763442E-04    1.6778970457E-04    1.6322875708E-04
    1.5879136703E-04    1.5447420142E-04    1.5027401664E-04    1.4618765611E-04
    1.4221204801E-04    1.3834420297E-04    1.3458121191E-04    1.3092024383E-04
    1.2735854379E-04    1.2389343088E-04    1.2052229621E-04    1.1724260102E-04
    1.1405187478E-04    1.1094771337E-04    1.0792777733E-04    1.0498979011E-04
    1.0213153642E-04    9.9350860547E-05    9.6645664776E-05    9.4013907848E-05
    9.1453603477E-05    8.8962818833E-05    8.6539673130E-05    8.4182336230E-05
    8.1889027267E-05    7.9658013395E-05    7.7487608437E-05    7.5376171652E-05
    7.3322106519E-05    7.1323859538E-05    6.9379919116E-05    6.7488814417E-05
    6.5649114265E-05    6.3859426085E-05    6.2118394862E-05    6.0424702140E-05
    5.8777065061E-05    5.7174235377E-05    5.5614998532E-05    5.4098172757E-05
    5.2622608177E-05    5.1187185994E-05    4.9790817620E-05    4.8432443866E-05
    4.7111034157E-05    4.5825585755E-05    4.4575123023E-05    4.3358696705E-05
    4.2175383194E-05    4.1024283852E-05    3.9904524333E-05    3.8815253925E-05
    3.7755644941E-05    3.6724892080E-05    3.5722211819E-05    3.4746841831E-05
    3.3798040416E-05    3.2875085935E-05    3.1977276305E-05    3.1103928433E-05
    3.0254377720E-05    2.9427977559E-05    2.8624098843E-05    2.7842129511E-05
    2.7081474085E-05    2.6341553213E-05    2.5621803236E-05    2.4921675765E-05
    2.4240637263E-05    2.3578168665E-05    2.2933764976E-05    2.2306934883E-05
    2.1697200394E-05    2.1104096473E-05    2.0527170687E-05    1.9965982887E-05
    1.9420104859E-05    1.8889120001E-05    1.8372623011E-05    1.7870219583E-05
    1.7381526099E-05    1.6906169371E-05    1.6443786330E-05    1.5994023762E-05
    1.5556538040E-05    1.5130994863E-05    1.4717068999E-05    1.4314444063E-05
    1.3922812258E-05    1.3541874141E-05    1.3171338405E-05    1.2810921653E-05
    1.2460348180E-05    1.2119349786E-05    1.1787665555E-05    1.1465041658E-05
    1.1151231164E-05    1.0845993854E-05    1.0549096032E-05    1.0260310363E-05
    9.9794156957E-06    9.7061968855E-06    9.4404446396E-06    9.1819553560E-06
    8.9305309655E-06    8.6859787910E-06    8.4481114006E-06    8.2167464575E-06
    7.9917065855E-06    7.7728192339E-06    7.5599165458E-06    7.3528352296E-06
    7.1514164484E-06    6.9555056830E-06    6.7649526197E-06    6.5796110370E-06
    6.3993386936E-06    6.2239972154E-06    6.0534520072E-06    5.8875721356E-06
    5.7262302317E-06    5.5693023956E-06    5.4166681021E-06    5.2682101060E-06
    5.1238143587E-06    4.9833699231E-06    4.8467688818E-06    4.7139062576E-06
    4.5846799338E-06    4.4589905769E-06    4.3367415553E-06    4.2178388816E-06
    4.1021911266E-06    3.9897093528E-06    3.8803070476E-06    3.7739000570E-06
    3.6704065196E-06    3.5697468067E-06    3.4718434667E-06    3.3766211569E-06
    3.2840065897E-06    3.1939284762E-06    3.1063174724E-06    3.0211061228E-06
    2.9382288170E-06    2.8576217355E-06    2.7792227982E-06    2.7029716195E-06
    2.6288094612E-06    2.5566791883E-06    2.4865252217E-06    2.4182935066E-06
    2.3519314610E-06    2.2873879381E-06    2.2246131872E-06    2.1635588162E-06
    2.1041777536E-06    2.0464242107E-06    1.9902536562E-06    1.9356227714E-06
    1.8824894210E-06    1.8308126202E-06    1.7805525038E-06    1.7316702951E-06
    1.6841282749E-06    1.6378897600E-06    1.5929190668E-06    1.5491814865E-06
    1.5066432589E-06    1.4652715461E-06    1.4250344073E-06    1.3859007731E-06
    1.3478404281E-06    1.3108239803E-06    1.2748228412E-06    1.2398092038E-06
    1.2057560213E-06    1.1726369858E-06    1.1404265072E-06    1.1090996996E-06
    1.0786323556E-06    1.0490009296E-06    1.0201825198E-06    9.9215485090E-07
    9.6489625668E-07    9.3838566138E-07    9.1260257025E-07    8.8752704739E-07
    8.6313970210E-07    8.3942167417E-07    8.1635461936E-07    7.9392069531E-07
    7.7210254643E-07    7.5088329445E-07    7.3024652299E-07    7.1017626430E-07
    6.9065698760E-07    6.7167358717E-07    6.5321137074E-07    6.3525604750E-07
    6.1779371804E-07    6.0081086539E-07    5.8429434144E-07    5.6823135805E-07
    5.5260947719E-07    5.3741660138E-07    5.2264096436E-07    5.0827112054E-07
    4.9429594091E-07    4.8070459999E-07    4.6748656867E-07    4.5463160621E-07
    4.4212975235E-07    4.2997131964E-07    4.1814688534E-07    4.0664728532E-07
    3.9546360771E-07    3.8458718397E-07    3.7400958302E-07    3.6372260482E-07
    3.5371827396E-07    3.4398883358E-07    3.3452673831E-07    3.2532465154E-07
    3.1637543721E-07    3.0767215461E-07    2.9920805325E-07    2.9097656765E-07
    2.8297131226E-07    2.7518607646E-07    2.6761481913E-07    2.6025166676E-07
    2.5309090589E-07    2.4612697968E-07    2.3935448367E-07    2.3276816154E-07
    2.2636290110E-07    2.2013373001E-07    2.1407581230E-07    2.0818444570E-07
    2.0245505627E-07    1.9688319550E-07    1.9146453686E-07    1.8619487250E-07
    1.8107010998E-07    1.7608626870E-07    1.7123947760E-07    1.6652597246E-07
    1.6194209185E-07    1.5748427479E-07    1.5314905797E-07    1.4893307311E-07
    1.4483304435E-07    1.4084578532E-07    1.3696819747E-07    1.3319726776E-07
    1.2953006544E-07    1.2596374018E-07    1.2249551989E-07    1.1912270854E-07
    1.1584268408E-07    1.1265289617E-07    1.0955086463E-07    1.0653417793E-07
    1.0360049036E-07    1.0074752060E-07    9.7973049952E-08    9.5274920608E-08
    9.2651034013E-08    9.0099349076E-08    8.7617880599E-08    8.5204698683E-08
    8.2857925989E-08    8.0575736727E-08    7.8356355242E-08    7.6198054633E-08
    7.4099155421E-08    7.2058024247E-08    7.0073072116E-08    6.8142754688E-08
    6.6265569590E-08    6.4440055702E-08    6.2664792035E-08    6.0938396629E-08
    5.9259525482E-08    5.7626871509E-08    5.6039163262E-08    5.4495164610E-08
    5.2993673479E-08    5.1533520657E-08    5.0113569053E-08    4.8732712815E-08
    4.7389876474E-08    4.6084014110E-08    4.4814108484E-08    4.3579170107E-08
    4.2378237291E-08    4.1210374470E-08    4.0074671785E-08    3.8970244383E-08
    3.7896231727E-08    3.6851796928E-08    3.5836126100E-08    3.4848427533E-08
    3.3887931537E-08    3.2953889680E-08    3.2045573971E-08    3.1162276430E-08
    3.0303308537E-08    2.9468000700E-08    2.8655701733E-08    2.7865778350E-08
    2.7097614426E-08    2.6350611271E-08    2.5624186465E-08    2.4917773579E-08
    2.4230821757E-08    2.3562795289E-08    2.2913173194E-08    2.2281448818E-08
    2.1667129402E-08    2.1069735606E-08    2.0488801662E-08    1.9923874412E-08
    1.9374513165E-08    1.8840289346E-08    1.8320786168E-08    1.7815598308E-08
    1.7324331589E-08    1.6846602622E-08    1.6382038526E-08    1.5930276933E-08
    1.5490965300E-08    1.5063760783E-08    1.4648329967E-08    1.4244348610E-08
    1.3851501389E-08    1.3469481655E-08    1.3097991149E-08    1.2736739791E-08
    1.2385445693E-08    1.2043834604E-08    1.1711639817E-08    1.1388601967E-08
    1.1074468823E-08    1.0768995093E-08    1.0471942237E-08    1.0183078250E-08
    9.9021774512E-09    9.6290205852E-09    9.3633943191E-09    9.1050911909E-09
    8.8539094479E-09    8.6096528898E-09    8.3721307159E-09    8.1411573766E-09
    7.9165524292E-09    7.6981402788E-09    7.4857504069E-09    7.2792168785E-09
    7.0783783248E-09    6.8830778187E-09    6.6931627528E-09    6.5084847204E-09
    6.3288993999E-09    6.1542664430E-09    5.9844492962E-09    5.8193152730E-09
    5.6587353441E-09    5.5025840000E-09    5.3507391866E-09    5.2030822106E-09
    5.0594976464E-09    4.9198732464E-09    4.7840998534E-09    4.6520712948E-09
    4.5236843007E-09    4.3988385574E-09    4.2774364517E-09    4.1593830581E-09
    4.0445860658E-09    3.9329557055E-09    3.8244046801E-09    3.7188480968E-09
    3.6162034003E-09    3.5163902585E-09    3.4193306352E-09    3.3249486376E-09
    3.2331704434E-09    3.1439242635E-09    3.0571402862E-09    2.9727506226E-09
    2.8906892536E-09    2.8108919786E-09    2.7332963621E-09    2.6578416398E-09
    2.5844688323E-09    2.5131205318E-09    2.4437409116E-09    2.3762756834E-09
    2.3106720543E-09    2.2468786855E-09    2.1848456530E-09    2.1245244078E-09
    2.0658677241E-09    2.0088296721E-09    1.9533656453E-09    1.8994322325E-09
    1.8469872189E-09    1.7959895529E-09    1.7463993138E-09    1.6981776810E-09
    1.6512869036E-09    1.6056902707E-09    1.5613520666E-09    1.5182375695E-09
    1.4763130484E-09    1.4355456784E-09    1.3959035392E-09    1.3573555905E-09
    1.3198716470E-09    1.2834223556E-09    1.2479791718E-09    1.2135143381E-09
    1.1800008482E-09    1.1474124480E-09    1.1157236352E-09    1.0849095909E-09
    1.0549461804E-09    1.0258099344E-09    9.9747803035E-10    9.6992827469E-10
    9.4313908570E-10    9.1708947647E-10    8.9175903092E-10    8.6712789175E-10
    8.4317678223E-10    8.1988693795E-10    7.9724011187E-10    7.7521855995E-10
    7.5380502734E-10    7.3298273484E-10    7.1273536581E-10    6.9304705344E-10
    6.7390236756E-10    6.5528628347E-10    6.3718423412E-10    6.1958203333E-10
    6.0246588609E-10    5.8582237777E-10    5.6963846361E-10    5.5390145852E-10
    5.3859902714E-10    5.2371917423E-10    5.0925023530E-10    4.9518085528E-10
    4.8150001110E-10    4.6819698439E-10    4.5526134651E-10    4.4268295638E-10
    4.3045195262E-10    4.1855874576E-10    4.0699401078E-10    3.9574867977E-10
    3.8481393494E-10    3.7418119901E-10    3.6384212440E-10    3.5378861623E-10
    3.4401279108E-10    3.3450698300E-10    3.2526373747E-10    3.1627580558E-10
    3.0753613832E-10    2.9903788111E-10    2.9077436841E-10    2.8273911852E-10
    2.7492582182E-10    2.6732835108E-10    2.5994075254E-10    2.5275723153E-10
    2.4577215322E-10    2.3898003825E-10    2.3237555836E-10    2.2595353230E-10
    2.1970892171E-10    2.1363682722E-10    2.0773248462E-10    2.0199125325E-10
    1.9640863469E-10    1.9098025078E-10    1.8570184240E-10    1.8056926793E-10
    1.7557850002E-10    1.7072562242E-10    1.6600682692E-10    1.6141841036E-10
    1.5695677176E-10    1.5261840948E-10    1.4839991120E-10    1.4429797312E-10
    1.4030937657E-10    1.3643099122E-10    1.3265977314E-10    1.2899276236E-10
    1.2542708060E-10    1.2195992899E-10    1.1858858588E-10    1.1531040471E-10
    1.1212281195E-10    1.0902329930E-10    1.0600943904E-10    1.0307886572E-10
    1.0022927878E-10    9.7458441136E-11    9.4764177446E-11    9.2144372392E-11
    8.9596969027E-11    8.7119967164E-11    8.4711421809E-11    8.2369441643E-11
    8.0092183590E-11    7.7877862466E-11    7.5724740613E-11    7.3631127358E-11
    7.1595378693E-11    6.9615895982E-11    6.7691124710E-11    6.5819553260E-11
    6.3999711733E-11    6.2230170793E-11    6.0509540555E-11    5.8836467415E-11
    5.7209637479E-11    5.5627774932E-11    5.4089637370E-11    5.2594016682E-11
    5.1139738107E-11    4.9725659310E-11    4.8350669481E-11    4.7013688473E-11
    4.5713665948E-11    4.4449580559E-11    4.3220438777E-11    4.2025272520E-11
    4.0863145638E-11    3.9733145178E-11    3.8634383397E-11    3.7565997057E-11
    3.6527146752E-11    3.5517016247E-11    3.4534811835E-11    3.3579761721E-11
    3.2651115410E-11    3.1748143129E-11    3.0870133825E-11    3.0016397922E-11
    2.9186265628E-11    2.8379084638E-11    2.7594220658E-11    2.6831056908E-11
    2.6088993635E-11    2.5367447641E-11    2.4665851831E-11    2.3983654761E-11
    2.3320320213E-11    2.2675326772E-11    2.2048165694E-11    2.1438345583E-11
    2.0845387352E-11    2.0268824952E-11    1.9708205202E-11    1.9163087437E-11
    1.8633043156E-11    1.8117655688E-11    1.7616519867E-11    1.7129241713E-11
    1.6655438122E-11    1.6194736454E-11    1.5746773200E-11    1.5311197599E-11
    1.4887667233E-11    1.4475849142E-11    1.4075419562E-11    1.3686063667E-11
    1.3307475326E-11    1.2939356860E-11    1.2581418808E-11    1.2233379704E-11
    1.1894965850E-11    1.1565910976E-11    1.1245955391E-11    1.0934848558E-11
    1.0632345855E-11    1.0338209415E-11    1.0052207942E-11    9.7741165288E-12
    9.5037164764E-12    9.2407951262E-12    8.9851456912E-12    8.7365670944E-12
    8.4948638115E-12    8.2598457123E-12    8.0313270253E-12    7.8091289331E-12
    7.5930766851E-12    7.3830003585E-12    7.1787347243E-12    6.9801191167E-12
    6.7869973073E-12    6.5992173818E-12    6.4166316208E-12    6.2390963843E-12
    6.0664719991E-12    5.8986226493E-12    5.7354157395E-12    5.5767232357E-12
    5.4224204812E-12    5.2723860947E-12    5.1265020481E-12    4.9846535735E-12
    4.8467290729E-12    4.7126200303E-12    4.5822209266E-12    4.4554291567E-12
    4.3321449491E-12    4.2122712881E-12    4.0957136446E-12    3.9823801401E-12
    3.8721819563E-12    3.7650323903E-12    3.6608471348E-12    3.5595442115E-12
    3.4610439067E-12    3.3652687083E-12    3.2721432452E-12    3.1815942276E-12
    3.0935503899E-12    3.0079424351E-12    2.9247029799E-12    2.8437661681E-12
    2.7650685581E-12    2.6885483004E-12    2.6141451772E-12    2.5418006340E-12
    2.4714577345E-12    2.4030611147E-12    2.3365569402E-12    2.2718928632E-12
    2.2090179820E-12    2.1478828005E-12    2.0884391900E-12    2.0306403167E-12
    1.9744404288E-12    1.9197955737E-12    1.8666627411E-12    1.8150001096E-12
    1.7647670131E-12    1.7159239092E-12    1.6684323476E-12    1.6222549404E-12
    1.5773553322E-12    1.5336981718E-12    1.4912490843E-12    1.4499746448E-12
    1.4098422891E-12    1.3708203000E-12    1.3328781365E-12    1.2959859294E-12
    1.2601146348E-12    1.2252360113E-12    1.1913225979E-12    1.1583476922E-12
    1.1262853294E-12    1.0951102621E-12    1.0647979398E-12    1.0353244907E-12
    1.0066667021E-12    9.7880195668E-13    9.5170821907E-13    9.2536429219E-13
    8.9974943350E-13    8.7484347377E-13    8.5062680113E-13    8.2708034562E-13
    8.0418556410E-13    7.8192442571E-13    7.6027939764E-13    7.3923343139E-13
    7.1876994941E-13    6.9887283213E-13    6.7952639265E-13    6.6071527909E-13
    6.4242480136E-13    6.2464055559E-13    6.0734853605E-13    5.9053512410E-13
    5.7418707741E-13    5.5829151954E-13    5.4283592975E-13    5.2780813321E-13
    5.1319629137E-13    4.9898889275E-13    4.8517474385E-13    4.7174296046E-13
    4.5868287986E-13    4.4598427021E-13    4.3363715295E-13    4.2163180276E-13
    4.0995876314E-13    3.9860883892E-13    3.8757308901E-13    3.7684281934E-13
    3.6640957604E-13    3.5626513874E-13    3.4640151419E-13    3.3681092994E-13
    3.2748582829E-13    3.1841883776E-13    3.0960278203E-13    3.0103077004E-13
    2.9269604896E-13    2.8459205268E-13    2.7671239654E-13    2.6905087234E-13
    2.6160144341E-13    2.5435823986E-13    2.4731555395E-13    2.4046783563E-13
    2.3380968816E-13    2.2733586391E-13    2.2104126023E-13    2.1492087831E-13
    2.0896991252E-13    2.0318369384E-13    1.9755766326E-13    1.9208738780E-13
    1.8676855697E-13    1.8159697945E-13    1.7656857968E-13    1.7167939474E-13
    1.6692557114E-13    1.6230336188E-13    1.5780912347E-13    1.5343931307E-13
    1.4919048574E-13    1.4505925609E-13    1.4104239765E-13    1.3713675139E-13
    1.3333923952E-13    1.2964686934E-13    1.2605673084E-13    1.2256599444E-13
    1.1917190875E-13    1.1587179837E-13    1.1266306185E-13    1.0954316956E-13
    1.0650966179E-13    1.0356014677E-13    1.0069229881E-13    9.7903829371E-14
    9.5192563987E-14    9.2556369537E-14    8.9993168287E-14    8.7500939943E-14
    8.5077720050E-14    8.2721598443E-14    8.0430717734E-14    7.8203271852E-14
    7.6037504618E-14    7.3931708370E-14    7.1884222620E-14    6.9893432757E-14
    6.7957768787E-14    6.6075687298E-14    6.4245715439E-14    6.2466416575E-14
    6.0736388143E-14    5.9054266358E-14    5.7418725129E-14    5.5828475018E-14
    5.4282262213E-14    5.2778867543E-14    5.1317105519E-14    4.9895823399E-14
    4.8513900287E-14    4.7170246254E-14    4.5863801488E-14    4.4593528268E-14
    4.3358422671E-14    4.2157520295E-14    4.0989874384E-14    3.9854564363E-14
    3.8750695104E-14    3.7677396221E-14    3.6633821376E-14    3.5619147619E-14
    3.4632574732E-14    3.3673324603E-14    3.2740640616E-14    3.1833787057E-14
    3.0952048538E-14    3.0094729440E-14    2.9261141945E-14    2.8450639654E-14
    2.7662584031E-14    2.6896353696E-14    2.6151344454E-14    2.5426968808E-14
    2.4722655497E-14    2.4037849045E-14    2.3372009323E-14    2.2724611123E-14
    2.2095143743E-14    2.1483110591E-14    2.0888028793E-14    2.0309428818E-14
    1.9746851479E-14    1.9199849554E-14    1.8667997676E-14    1.8150876436E-14
    1.7648078024E-14    1.7159205907E-14    1.6683874509E-14    1.6221708911E-14
    1.5772344553E-14    1.5335426944E-14    1.4910611389E-14    1.4497562711E-14
    1.4095954994E-14    1.3705471325E-14    1.3325803547E-14    1.2956649042E-14
    1.2597716242E-14    1.2248725343E-14    1.1909401104E-14    1.1579475893E-14
    1.1258689480E-14    1.0946788826E-14    1.0643527883E-14    1.0348667403E-14
    1.0061974747E-14    9.7832236993E-15    9.5121942955E-15    9.2486726451E-15
    8.9924507663E-15    8.7433264234E-15    8.5013858010E-15    8.2664657361E-15
    8.0380407715E-15    7.8159094061E-15    7.5998763285E-15    7.3897527967E-15
    7.1853569994E-15    6.9865143922E-15    6.7930580004E-15    6.6048286823E-15
    6.4216753447E-15    6.2434551041E-15    6.0700333864E-15    5.9012839564E-15
    5.7370888721E-15    5.5760281774E-15    5.4160403742E-15    5.2604859492E-15
    5.1094344973E-15    4.9629543208E-15    4.8211079731E-15    4.6839478229E-15
    4.5515116840E-15    4.4238185527E-15    4.3008644974E-15    4.1826187437E-15
    4.0690199988E-15    3.9599730583E-15    3.8553457394E-15    3.7549661843E-15
    3.6586205763E-15    3.5798417581E-15    3.5054198138E-15    3.4332147349E-15
    3.3623453759E-15    3.2919172546E-15    3.2210352611E-15    3.1488165359E-15
    3.0744034063E-15    2.9969762694E-15    2.9157663102E-15    2.8300679443E-15
    2.7392508728E-15    2.6427716394E-15    2.5401845770E-15    2.4311520333E-15
    2.3054607486E-15    2.1556679432E-15    2.0002756831E-15    1.8403535549E-15
    1.6770708363E-15    1.5116794242E-15    1.3454960495E-15    1.1798839316E-15
    1.0162340233E-15    8.5594599973E-16    7.0040914213E-16    5.5098326939E-16
    4.0897986917E-16    2.7564358073E-16    1.5213418160E-16    3.9509230139E-17
   -4.2390718494E-17   -1.0067932683E-16   -1.4714224511E-16   -1.8223487118E-16
   -2.0653383050E-16   -2.2072570309E-16   -2.2559490590E-16   -2.2201084821E-16
   -2.1091447829E-16   -1.9330433904E-16   -1.7022225043E-16   -1.4273873684E-16
   -1.1193831703E-16   -7.8904774680E-17   -4.4706527423E-17   -1.0382212192E-17
    9.0710144459E-18    2.0893547326E-17    3.1033373744E-17    3.9321356356E-17
    4.5648541340E-17    4.9963188888E-17    5.2267315331E-17    5.2612796088E-17
    5.1097078606E-17    4.7858554467E-17    4.3071639858E-17    3.6941613557E-17
    2.9699261635E-17    2.1595378040E-17    1.2895170244E-17    3.8726191348E-18
   -8.8183729256E-19   -2.3121720122E-18   -3.5783364077E-18   -4.6515463105E-18
   -5.5098444472E-18   -6.1381290695E-18   -6.5280685214E-18   -6.6779104319E-18
   -6.5921942176E-18   -6.2813755838E-18   -5.7613717103E-18   -5.0530358081E-18
   -4.1815697355E-18   -3.1758833580E-18   -2.0679093411E-18   -8.9188206085E-19
    0.0000000000E+00    0.0000000000E+00    0.0000000000E+00    0.0000000000E+00
    0.0000000000E+00    0.0000000000E+00    0.0000000000E+00    0.0000000000E+00
    0.0000000000E+00    0.0000000000E+00    0.0000000000E+00    0.0000000000E+00
    0.0000000000E+00    0.0000000000E+00    0.0000000000E+00    0.0000000000E+00
    0.0000000000E+00    0.0000000000E+00    0.0000000000E+00    0.0000000000E+00
    0.0000000000E+00    0.0000000000E+00    0.0000000000E+00    0.0000000000E+00
    0.0000000000E+00    0.0000000000E+00    0.0000000000E+00    0.0000000000E+00
    0.0000000000E+00    0.0000000000E+00    0.0000000000E+00    0.0000000000E+00
    0.0000000000E+00    0.0000000000E+00    0.0000000000E+00    0.0000000000E+00
    0.0000000000E+00    0.0000000000E+00    0.0000000000E+00    0.0000000000E+00
    0.0000000000E+00    0.0000000000E+00    0.0000000000E+00    0.0000000000E+00
    0.0000000000E+00    0.0000000000E+00    0.0000000000E+00    0.0000000000E+00
    0.0000000000E+00    0.0000000000E+00    0.0000000000E+00    0.0000000000E+00
    0.0000000000E+00    0.0000000000E+00    0.0000000000E+00    0.0000000000E+00
    0.0000000000E+00    0.0000000000E+00    0.0000000000E+00    0.0000000000E+00
    0.0000000000E+00    0.0000000000E+00    0.0000000000E+00    0.0000000000E+00
    0.0000000000E+00    0.0000000000E+00    0.0000000000E+00    0.0000000000E+00
    0.0000000000E+00    0.0000000000E+00    0.0000000000E+00    0.0000000000E+00
    0.0000000000E+00    0.0000000000E+00    0.0000000000E+00    0.0000000000E+00
    0.0000000000E+00    0.0000000000E+00    0.0000000000E+00    0.0000000000E+00
    0.0000000000E+00    0.0000000000E+00    0.0000000000E+00    0.0000000000E+00
    0.0000000000E+00    0.0000000000E+00    0.0000000000E+00    0.0000000000E+00
    0.0000000000E+00    0.0000000000E+00    0.0000000000E+00    0.0000000000E+00
    0.0000000000E+00    0.0000000000E+00    0.0000000000E+00    0.0000000000E+00
    0.0000000000E+00    0.0000000000E+00    0.0000000000E+00    0.0000000000E+00
    0.0000000000E+00    0.0000000000E+00    0.0000000000E+00    0.0000000000E+00
    0.0000000000E+00    0.0000000000E+00    0.0000000000E+00    0.0000000000E+00
    0.0000000000E+00    0.0000000000E+00    0.0000000000E+00    0.0000000000E+00
    0.0000000000E+00    0.0000000000E+00    0.0000000000E+00    0.0000000000E+00
    0.0000000000E+00    0.0000000000E+00    0.0000000000E+00    0.0000000000E+00
    0.0000000000E+00    0.0000000000E+00    0.0000000000E+00    0.0000000000E+00
    0.0000000000E+00    0.0000000000E+00    0.0000000000E+00    0.0000000000E+00
    0.0000000000E+00    0.0000000000E+00    0.0000000000E+00    0.0000000000E+00
    0.0000000000E+00    0.0000000000E+00    0.0000000000E+00    0.0000000000E+00
    0.0000000000E+00    0.0000000000E+00    0.0000000000E+00    0.0000000000E+00
    0.0000000000E+00    0.0000000000E+00    0.0000000000E+00    0.0000000000E+00
    0.0000000000E+00    0.0000000000E+00    0.0000000000E+00    0.0000000000E+00
    0.0000000000E+00    0.0000000000E+00    0.0000000000E+00    0.0000000000E+00
    0.0000000000E+00    0.0000000000E+00    0.0000000000E+00    0.0000000000E+00
    0.0000000000E+00    0.0000000000E+00    0.0000000000E+00    0.0000000000E+00
    0.0000000000E+00    0.0000000000E+00    0.0000000000E+00    0.0000000000E+00
    0.0000000000E+00    0.0000000000E+00    0.0000000000E+00    0.0000000000E+00
    0.0000000000E+00    0.0000000000E+00    0.0000000000E+00    0.0000000000E+00
    0.0000000000E+00    0.0000000000E+00    0.0000000000E+00    0.0000000000E+00
    0.0000000000E+00    0.0000000000E+00    0.0000000000E+00    0.0000000000E+00
    0.0000000000E+00    0.0000000000E+00    0.0000000000E+00    0.0000000000E+00
    0.0000000000E+00    0.0000000000E+00    0.0000000000E+00    0.0000000000E+00
    0.0000000000E+00    0.0000000000E+00    0.0000000000E+00    0.0000000000E+00
    0.0000000000E+00    0.0000000000E+00    0.0000000000E+00    0.0000000000E+00
    0.0000000000E+00    0.0000000000E+00    0.0000000000E+00    0.0000000000E+00
    0.0000000000E+00    0.0000000000E+00    0.0000000000E+00    0.0000000000E+00
    0.0000000000E+00    0.0000000000E+00    0.0000000000E+00    0.0000000000E+00
    0.0000000000E+00    0.0000000000E+00    0.0000000000E+00    0.0000000000E+00
    0.0000000000E+00    0.0000000000E+00    0.0000000000E+00    0.0000000000E+00
    0.0000000000E+00    0.0000000000E+00    0.0000000000E+00    0.0000000000E+00
    0.0000000000E+00    0.0000000000E+00    0.0000000000E+00    0.0000000000E+00
    0.0000000000E+00    0.0000000000E+00    0.0000000000E+00    0.0000000000E+00
    0.0000000000E+00    0.0000000000E+00    0.0000000000E+00    0.0000000000E+00
    0.0000000000E+00    0.0000000000E+00    0.0000000000E+00    0.0000000000E+00
    0.0000000000E+00    0.0000000000E+00    0.0000000000E+00    0.0000000000E+00
    0.0000000000E+00    0.0000000000E+00    0.0000000000E+00    0.0000000000E+00
    0.0000000000E+00    0.0000000000E+00    0.0000000000E+00    0.0000000000E+00
    0.0000000000E+00    0.0000000000E+00    0.0000000000E+00    0.0000000000E+00
    0.0000000000E+00    0.0000000000E+00    0.0000000000E+00    0.0000000000E+00
    0.0000000000E+00    0.0000000000E+00    0.0000000000E+00    0.0000000000E+00
    0.0000000000E+00    0.0000000000E+00    0.0000000000E+00    0.0000000000E+00
    0.0000000000E+00    0.0000000000E+00    0.0000000000E+00    0.0000000000E+00
    0.0000000000E+00    0.0000000000E+00    0.0000000000E+00    0.0000000000E+00
    0.0000000000E+00    0.0000000000E+00    0.0000000000E+00    0.0000000000E+00
    0.0000000000E+00    0.0000000000E+00    0.0000000000E+00    0.0000000000E+00
    0.0000000000E+00    0.0000000000E+00    0.0000000000E+00    0.0000000000E+00
    0.0000000000E+00    0.0000000000E+00    0.0000000000E+00    0.0000000000E+00
    0.0000000000E+00    0.0000000000E+00    0.0000000000E+00    0.0000000000E+00
    0.0000000000E+00    0.0000000000E+00    0.0000000000E+00    0.0000000000E+00
    0.0000000000E+00    0.0000000000E+00    0.0000000000E+00    0.0000000000E+00
    0.0000000000E+00    0.0000000000E+00    0.0000000000E+00    0.0000000000E+00
    0.0000000000E+00    0.0000000000E+00    0.0000000000E+00    0.0000000000E+00
    0.0000000000E+00    0.0000000000E+00    0.0000000000E+00    0.0000000000E+00
    0.0000000000E+00    0.0000000000E+00    0.0000000000E+00    0.0000000000E+00
    0.0000000000E+00    0.0000000000E+00    0.0000000000E+00    0.0000000000E+00
    0.0000000000E+00    0.0000000000E+00    0.0000000000E+00    0.0000000000E+00
    0.0000000000E+00    0.0000000000E+00    0.0000000000E+00    0.0000000000E+00
    0.0000000000E+00    0.0000000000E+00    0.0000000000E+00    0.0000000000E+00
    0.0000000000E+00    0.0000000000E+00    0.0000000000E+00    0.0000000000E+00
    0.0000000000E+00    0.0000000000E+00    0.0000000000E+00    0.0000000000E+00
    0.0000000000E+00    0.0000000000E+00    0.0000000000E+00    0.0000000000E+00
    0.0000000000E+00    0.0000000000E+00    0.0000000000E+00    0.0000000000E+00
    0.0000000000E+00    0.0000000000E+00    0.0000000000E+00    0.0000000000E+00
    0.0000000000E+00    0.0000000000E+00    0.0000000000E+00    0.0000000000E+00
    0.0000000000E+00    0.0000000000E+00    0.0000000000E+00    0.0000000000E+00
    0.0000000000E+00    0.0000000000E+00    0.0000000000E+00    0.0000000000E+00
    0.0000000000E+00    0.0000000000E+00    0.0000000000E+00    0.0000000000E+00
    0.0000000000E+00    0.0000000000E+00    0.0000000000E+00    0.0000000000E+00
    0.0000000000E+00    0.0000000000E+00    0.0000000000E+00    0.0000000000E+00
    0.0000000000E+00    0.0000000000E+00    0.0000000000E+00    0.0000000000E+00
    0.0000000000E+00    0.0000000000E+00    0.0000000000E+00    0.0000000000E+00
    0.0000000000E+00    0.0000000000E+00    0.0000000000E+00    0.0000000000E+00
    0.0000000000E+00    0.0000000000E+00    0.0000000000E+00    0.0000000000E+00
    0.0000000000E+00    0.0000000000E+00    0.0000000000E+00    0.0000000000E+00
    0.0000000000E+00    0.0000000000E+00    0.0000000000E+00    0.0000000000E+00
    0.0000000000E+00    0.0000000000E+00    0.0000000000E+00    0.0000000000E+00
    0.0000000000E+00    0.0000000000E+00    0.0000000000E+00    0.0000000000E+00
    0.0000000000E+00    0.0000000000E+00    0.0000000000E+00    0.0000000000E+00
    0.0000000000E+00    0.0000000000E+00    0.0000000000E+00    0.0000000000E+00
    0.0000000000E+00    0.0000000000E+00    0.0000000000E+00    0.0000000000E+00
    0.0000000000E+00    0.0000000000E+00    0.0000000000E+00    0.0000000000E+00
    0.0000000000E+00    0.0000000000E+00    0.0000000000E+00    0.0000000000E+00
    0.0000000000E+00    0.0000000000E+00    0.0000000000E+00    0.0000000000E+00
    0.0000000000E+00    0.0000000000E+00    0.0000000000E+00    0.0000000000E+00
    0.0000000000E+00    0.0000000000E+00    0.0000000000E+00    0.0000000000E+00
    0.0000000000E+00    0.0000000000E+00    0.0000000000E+00    0.0000000000E+00
    0.0000000000E+00    0.0000000000E+00    0.0000000000E+00    0.0000000000E+00
    0.0000000000E+00    0.0000000000E+00    0.0000000000E+00    0.0000000000E+00
    0.0000000000E+00    0.0000000000E+00    0.0000000000E+00    0.0000000000E+00
    0.0000000000E+00    0.0000000000E+00    0.0000000000E+00    0.0000000000E+00
    0.0000000000E+00    0.0000000000E+00    0.0000000000E+00    0.0000000000E+00
    0.0000000000E+00    0.0000000000E+00    0.0000000000E+00    0.0000000000E+00
    0.0000000000E+00    0.0000000000E+00    0.0000000000E+00    0.0000000000E+00
    0.0000000000E+00    0.0000000000E+00    0.0000000000E+00    0.0000000000E+00
    0.0000000000E+00    0.0000000000E+00
   </PP_CHI.1>
   <PP_CHI.2
       type="real"
       size="1854"
       columns="4"
       index="2"
       occupation=" 6.000"
       pseudo_energy="   -0.5123699304E+01"
       label="2P"
       l="1" >
    1.0162534009E-11    4.7682391662E-04    1.9064692312E-03    4.2864582960E-03
    7.6126673872E-03    1.1879335249E-02    1.7079075021E-02    2.3202889525E-02
    3.0240189869E-02    3.8178817332E-02    4.7005068463E-02    5.6703723349E-02
    6.7258076971E-02    7.8649973579E-02    9.0859843995E-02    1.0386674577E-01
    1.1764840608E-01    1.3218126725E-01    1.4744053485E-01    1.6340022817E-01
    1.8003323301E-01    1.9731135662E-01    2.1520538473E-01    2.3368514042E-01
    2.5271954476E-01    2.7227667916E-01    2.9232384904E-01    3.1282764895E-01
    3.3375402881E-01    3.5506836115E-01    3.7673550921E-01    3.9871989581E-01
    4.2098557262E-01    4.4349628995E-01    4.6621556670E-01    4.8910676033E-01
    5.1213313681E-01    5.3525794028E-01    5.5844446226E-01    5.8165611039E-01
    6.0485647634E-01    6.2800940295E-01    6.5107905028E-01    6.7402996057E-01
    6.9682712184E-01    7.1943603015E-01    7.4182275021E-01    7.6395397434E-01
    7.8579707967E-01    8.0732018333E-01    8.2849219574E-01    8.4928287159E-01
    8.6966285879E-01    8.8960374494E-01    9.0907810149E-01    9.2805952536E-01
    9.4652267805E-01    9.6444332211E-01    9.8179835491E-01    9.9856583977E-01
    1.0147250342E+00    1.0302564154E+00    1.0451417030E+00    1.0593638789E+00
    1.0729072039E+00    1.0857572322E+00    1.0979008223E+00    1.1093261457E+00
    1.1200226918E+00    1.1299812710E+00    1.1391940144E+00    1.1476543711E+00
    1.1553571020E+00    1.1622982723E+00    1.1684752396E+00    1.1738866414E+00
    1.1785323784E+00    1.1824135961E+00    1.1855326644E+00    1.1878931543E+00
    1.1894998126E+00    1.1903585348E+00    1.1904763353E+00    1.1898613168E+00
    1.1885226367E+00    1.1864704725E+00    1.1837159855E+00    1.1802712831E+00
    1.1761493791E+00    1.1713641539E+00    1.1659303123E+00    1.1598633410E+00
    1.1531794652E+00    1.1458956042E+00    1.1380293260E+00    1.1295988021E+00
    1.1206227613E+00    1.1111204431E+00    1.1011115514E+00    1.0906162075E+00
    1.0796549038E+00    1.0682484566E+00    1.0564179601E+00    1.0441847404E+00
    1.0315703098E+00    1.0185963216E+00    1.0052845260E+00    9.9165672592E-01
    9.7773473438E-01    9.6354033246E-01    9.4909522818E-01    9.3442101659E-01
    9.1953914090E-01    9.0447085480E-01    8.8923718616E-01    8.7385890189E-01
    8.5835647433E-01    8.4275004899E-01    8.2705941379E-01    8.1130396986E-01
    7.9550270381E-01    7.7967416169E-01    7.6383642453E-01    7.4800708548E-01
    7.3220322866E-01    7.1644140970E-01    7.0073763788E-01    6.8510736005E-01
    6.6956544613E-01    6.5412617641E-01    6.3880323039E-01    6.2360967740E-01
    6.0855796877E-01    5.9365993162E-01    5.7892676432E-01    5.6436903341E-01
    5.4999667213E-01    5.3581898038E-01    5.2184462620E-01    5.0808164861E-01
    4.9453746181E-01    4.8121886080E-01    4.6813202810E-01    4.5528254188E-01
    4.4267538508E-01    4.3031495579E-01    4.1820507856E-01    4.0634901679E-01
    3.9474948598E-01    3.8340866792E-01    3.7232822564E-01    3.6150931915E-01
    3.5095262180E-01    3.4065833733E-01    3.3062621743E-01    3.2085557982E-01
    3.1134532676E-01    3.0209396390E-01    2.9309961948E-01    2.8436006375E-01
    2.7587272857E-01    2.6763472719E-01    2.5964287399E-01    2.5189370439E-01
    2.4438349455E-01    2.3710828113E-01    2.3006388080E-01    2.2324590960E-01
    2.1664980205E-01    2.1027082998E-01    2.0410412102E-01    1.9814467674E-01
    1.9238739033E-01    1.8682706392E-01    1.8145842533E-01    1.7627614438E-01
    1.7127484862E-01    1.6644913851E-01    1.6179360199E-01    1.5730282851E-01
    1.5297142231E-01    1.4879401514E-01    1.4476527834E-01    1.4087993415E-01
    1.3713276643E-01    1.3351863066E-01    1.3003246323E-01    1.2666929007E-01
    1.2342423457E-01    1.2029252481E-01    1.1726950009E-01    1.1435061682E-01
    1.1153145371E-01    1.0880771629E-01    1.0617524083E-01    1.0362999755E-01
    1.0116809330E-01    9.8785773598E-02    9.6479424058E-02    9.4245571318E-02
    9.2080883384E-02    8.9982169480E-02    8.7946379400E-02    8.5970602386E-02
    8.4052065577E-02    8.2188132027E-02    8.0376298351E-02    7.8614191994E-02
    7.6899568175E-02    7.5230306530E-02    7.3604407467E-02    7.2019988281E-02
    7.0475279050E-02    6.8968618336E-02    6.7498448728E-02    6.6063312248E-02
    6.4661845647E-02    6.3292775636E-02    6.1954914046E-02    6.0647152969E-02
    5.9368459914E-02    5.8117872951E-02    5.6894495942E-02    5.5697493822E-02
    5.4526087964E-02    5.3379551689E-02    5.2257205871E-02    5.1158414720E-02
    5.0082581743E-02    4.9029145842E-02    4.7997577673E-02    4.6987376195E-02
    4.5998065409E-02    4.5029191413E-02    4.4080319633E-02    4.3151032329E-02
    4.2240926416E-02    4.1349611422E-02    4.0476707837E-02    3.9621845829E-02
    3.8784663820E-02    3.7964807841E-02    3.7161930980E-02    3.6375692906E-02
    3.5605759660E-02    3.4851803433E-02    3.4113502888E-02    3.3390542680E-02
    3.2682613438E-02    3.1989411897E-02    3.1310640578E-02    3.0646007735E-02
    2.9995227207E-02    2.9358018360E-02    2.8734105983E-02    2.8123220198E-02
    2.7525096357E-02    2.6939474953E-02    2.6366101524E-02    2.5804726568E-02
    2.5255105448E-02    2.4716998308E-02    2.4190169987E-02    2.3674389930E-02
    2.3169432107E-02    2.2675074932E-02    2.2191101178E-02    2.1717297898E-02
    2.1253456348E-02    2.0799371910E-02    2.0354844012E-02    1.9919676056E-02
    1.9493675344E-02    1.9076653004E-02    1.8668423922E-02    1.8268806667E-02
    1.7877623424E-02    1.7494699929E-02    1.7119865398E-02    1.6752952461E-02
    1.6393797104E-02    1.6042238598E-02    1.5698119439E-02    1.5361285289E-02
    1.5031584913E-02    1.4708870122E-02    1.4392995711E-02    1.4083819408E-02
    1.3781201811E-02    1.3485006337E-02    1.3195099168E-02    1.2911349194E-02
    1.2633627965E-02    1.2361809635E-02    1.2095770919E-02    1.1835391032E-02
    1.1580551652E-02    1.1331136864E-02    1.1087033116E-02    1.0848129175E-02
    1.0614316076E-02    1.0385487084E-02    1.0161537644E-02    9.9423653438E-03
    9.7278698684E-03    9.5179529597E-03    9.3125183759E-03    9.1114718516E-03
    8.9147210586E-03    8.7221755679E-03    8.5337468117E-03    8.3493480465E-03
    8.1688943170E-03    7.9923024203E-03    7.8194908710E-03    7.6503798671E-03
    7.4848912564E-03    7.3229485030E-03    7.1644766558E-03    7.0094023159E-03
    6.8576536061E-03    6.7091601397E-03    6.5638529913E-03    6.4216646666E-03
    6.2825290742E-03    6.1463814969E-03    6.0131585642E-03    5.8827982248E-03
    5.7552397203E-03    5.6304235586E-03    5.5082914886E-03    5.3887864748E-03
    5.2718526727E-03    5.1574354045E-03    5.0454811354E-03    4.9359374506E-03
    4.8287530321E-03    4.7238776362E-03    4.6212620722E-03    4.5208581803E-03
    4.4226188109E-03    4.3264978036E-03    4.2324499670E-03    4.1404310593E-03
    4.0503977681E-03    3.9623076918E-03    3.8761193207E-03    3.7917920188E-03
    3.7092860056E-03    3.6285623387E-03    3.5495828964E-03    3.4723103608E-03
    3.3967082014E-03    3.3227406583E-03    3.2503727269E-03    3.1795701421E-03
    3.1102993626E-03    3.0425275564E-03    2.9762225858E-03    2.9113529934E-03
    2.8478879875E-03    2.7857974283E-03    2.7250518149E-03    2.6656222715E-03
    2.6074805344E-03    2.5505989396E-03    2.4949504100E-03    2.4405084435E-03
    2.3872471004E-03    2.3351409926E-03    2.2841652710E-03    2.2342956151E-03
    2.1855082216E-03    2.1377797936E-03    2.0910875300E-03    2.0454091152E-03
    2.0007227088E-03    1.9570069358E-03    1.9142408768E-03    1.8724040583E-03
    1.8314764435E-03    1.7914384230E-03    1.7522708061E-03    1.7139548116E-03
    1.6764720593E-03    1.6398045620E-03    1.6039347166E-03    1.5688452964E-03
    1.5345194428E-03    1.5009406582E-03    1.4680927976E-03    1.4359600619E-03
    1.4045269899E-03    1.3737784518E-03    1.3436996416E-03    1.3142760708E-03
    1.2854935613E-03    1.2573382391E-03    1.2297965277E-03    1.2028551417E-03
    1.1765010811E-03    1.1507216245E-03    1.1255043240E-03    1.1008369989E-03
    1.0767077300E-03    1.0531048545E-03    1.0300169601E-03    1.0074328797E-03
    9.8534168667E-04    9.6373268914E-04    9.4259542537E-04    9.2191965876E-04
    9.0169537304E-04    8.8191276759E-04    8.6256225286E-04    8.4363444589E-04
    8.2512016589E-04    8.0701042990E-04    7.8929644860E-04    7.7196962222E-04
    7.5502153642E-04    7.3844395841E-04    7.2222883299E-04    7.0636827881E-04
    6.9085458466E-04    6.7568020583E-04    6.6083776052E-04    6.4632002640E-04
    6.3211993714E-04    6.1823057915E-04    6.0464518825E-04    5.9135714651E-04
    5.7835997907E-04    5.6564735113E-04    5.5321306490E-04    5.4105105672E-04
    5.2915539414E-04    5.1752027310E-04    5.0614001521E-04    4.9500906501E-04
    4.8412198741E-04    4.7347346502E-04    4.6305829565E-04    4.5287138987E-04
    4.4290776851E-04    4.3316256040E-04    4.2363099996E-04    4.1430842495E-04
    4.0519027426E-04    3.9627208573E-04    3.8754949401E-04    3.7901822851E-04
    3.7067411132E-04    3.6251305523E-04    3.5453106177E-04    3.4672421930E-04
    3.3908870118E-04    3.3162076386E-04    3.2431674515E-04    3.1717306244E-04
    3.1018621096E-04    3.0335276219E-04    2.9666936210E-04    2.9013272962E-04
    2.8373965505E-04    2.7748699846E-04    2.7137168829E-04    2.6539071978E-04
    2.5954115359E-04    2.5382011434E-04    2.4822478923E-04    2.4275242673E-04
    2.3740033520E-04    2.3216588167E-04    2.2704649047E-04    2.2203964208E-04
    2.1714287185E-04    2.1235376884E-04    2.0766997469E-04    2.0308918241E-04
    1.9860913534E-04    1.9422762600E-04    1.8994249505E-04    1.8575163024E-04
    1.8165296544E-04    1.7764447954E-04    1.7372419558E-04    1.6989017969E-04
    1.6614054024E-04    1.6247342687E-04    1.5888702966E-04    1.5537957815E-04
    1.5194934059E-04    1.4859462301E-04    1.4531376846E-04    1.4210515618E-04
    1.3896720084E-04    1.3589835172E-04    1.3289709203E-04    1.2996193807E-04
    1.2709143862E-04    1.2428417418E-04    1.2153875626E-04    1.1885382677E-04
    1.1622805730E-04    1.1366014847E-04    1.1114882936E-04    1.0869285685E-04
    1.0629101499E-04    1.0394211448E-04    1.0164499202E-04    9.9398509777E-05
    9.7201554805E-05    9.5053038553E-05    9.2951896294E-05    9.0897086614E-05
    8.8887590902E-05    8.6922412856E-05    8.5000577992E-05    8.3121133183E-05
    8.1283146184E-05    7.9485705176E-05    7.7727918315E-05    7.6008913307E-05
    7.4327836967E-05    7.2683854821E-05    7.1076150693E-05    6.9503926296E-05
    6.7966400849E-05    6.6462810689E-05    6.4992408900E-05    6.3554464945E-05
    6.2148264327E-05    6.0773108215E-05    5.9428313109E-05    5.8113210509E-05
    5.6827146581E-05    5.5569481833E-05    5.4339590826E-05    5.3136861843E-05
    5.1960696595E-05    5.0810509927E-05    4.9685729533E-05    4.8585795668E-05
    4.7510160884E-05    4.6458289762E-05    4.5429658641E-05    4.4423755360E-05
    4.3440079009E-05    4.2478139685E-05    4.1537458240E-05    4.0617566070E-05
    3.9718004866E-05    3.8838326388E-05    3.7978092249E-05    3.7136873698E-05
    3.6314251409E-05    3.5509815271E-05    3.4723164204E-05    3.3953905938E-05
    3.3201656832E-05    3.2466041681E-05    3.1746693533E-05    3.1043253502E-05
    3.0355370604E-05    2.9682701579E-05    2.9024910717E-05    2.8381669693E-05
    2.7752657407E-05    2.7137559826E-05    2.6536069822E-05    2.5947887039E-05
    2.5372717730E-05    2.4810274610E-05    2.4260276723E-05    2.3722449295E-05
    2.3196523603E-05    2.2682236836E-05    2.2179331984E-05    2.1687557692E-05
    2.1206668139E-05    2.0736422919E-05    2.0276586924E-05    1.9826930220E-05
    1.9387227941E-05    1.8957260182E-05    1.8536811879E-05    1.8125672709E-05
    1.7723636982E-05    1.7330503542E-05    1.6946075666E-05    1.6570160963E-05
    1.6202571295E-05    1.5843122665E-05    1.5491635133E-05    1.5147932727E-05
    1.4811843353E-05    1.4483198715E-05    1.4161834220E-05    1.3847588920E-05
    1.3540305408E-05    1.3239829750E-05    1.2946011410E-05    1.2658703169E-05
    1.2377761059E-05    1.2103044282E-05    1.1834415156E-05    1.1571739034E-05
    1.1314884240E-05    1.1063722004E-05    1.0818126397E-05    1.0577974271E-05
    1.0343145191E-05    1.0113521386E-05    9.8889876879E-06    9.6694314657E-06
    9.4547425773E-06    9.2448133121E-06    9.0395383374E-06    8.8388146451E-06
    8.6425415023E-06    8.4506204053E-06    8.2629550234E-06    8.0794511531E-06
    7.9000166722E-06    7.7245614929E-06    7.5529975179E-06    7.3852385921E-06
    7.2212004718E-06    7.0608007715E-06    6.9039589260E-06    6.7505961500E-06
    6.6006353995E-06    6.4540013331E-06    6.3106202725E-06    6.1704201695E-06
    6.0333305714E-06    5.8992825806E-06    5.7682088226E-06    5.6400434123E-06
    5.5147219210E-06    5.3921813448E-06    5.2723600696E-06    5.1551978493E-06
    5.0406357685E-06    4.9286162141E-06    4.8190828472E-06    4.7119805746E-06
    4.6072555218E-06    4.5048550055E-06    4.4047275054E-06    4.3068226470E-06
    4.2110911671E-06    4.1174848924E-06    4.0259567153E-06    3.9364605705E-06
    3.8489514120E-06    3.7633851895E-06    3.6797188273E-06    3.5979102067E-06
    3.5179181386E-06    3.4397023460E-06    3.3632234429E-06    3.2884429152E-06
    3.2153231013E-06    3.1438271721E-06    3.0739191145E-06    3.0055637152E-06
    2.9387265385E-06    2.8733739114E-06    2.8094729063E-06    2.7469913246E-06
    2.6858976810E-06    2.6261611857E-06    2.5677517323E-06    2.5106398826E-06
    2.4547968490E-06    2.4001944818E-06    2.3468052544E-06    2.2946022502E-06
    2.2435591484E-06    2.1936502107E-06    2.1448502695E-06    2.0971347165E-06
    2.0504794875E-06    2.0048610513E-06    1.9602563982E-06    1.9166430281E-06
    1.8739989396E-06    1.8323026184E-06    1.7915330262E-06    1.7516695941E-06
    1.7126922071E-06    1.6745811963E-06    1.6373173286E-06    1.6008817973E-06
    1.5652562124E-06    1.5304225918E-06    1.4963633497E-06    1.4630612945E-06
    1.4304996136E-06    1.3986618673E-06    1.3675319804E-06    1.3370942341E-06
    1.3073332579E-06    1.2782340223E-06    1.2497818302E-06    1.2219623115E-06
    1.1947614155E-06    1.1681654022E-06    1.1421608367E-06    1.1167345815E-06
    1.0918737911E-06    1.0675659043E-06    1.0437986388E-06    1.0205599836E-06
    9.9783819680E-07    9.7562179558E-07    9.5389955195E-07    9.3266048699E-07
    9.1189386536E-07    8.9158918986E-07    8.7173619624E-07    8.5232484714E-07
    8.3334532906E-07    8.1478804667E-07    7.9664361699E-07    7.7890286530E-07
    7.6155682044E-07    7.4459671038E-07    7.2801395773E-07    7.1180017550E-07
    6.9594716171E-07    6.8044689867E-07    6.6529154579E-07    6.5047343641E-07
    6.3598507408E-07    6.2181912873E-07    6.0796843303E-07    5.9442597876E-07
    5.8118491312E-07    5.6823853485E-07    5.5558029329E-07    5.4320378231E-07
    5.3110273801E-07    5.1927103560E-07    5.0770268628E-07    4.9639183422E-07
    4.8533275365E-07    4.7451984569E-07    4.6394763559E-07    4.5361077149E-07
    4.4350401965E-07    4.3362226261E-07    4.2396049653E-07    4.1451382876E-07
    4.0527747529E-07    3.9624675838E-07    3.8741710397E-07    3.7878403946E-07
    3.7034319273E-07    3.6209028812E-07    3.5402114502E-07    3.4613167565E-07
    3.3841788308E-07    3.3087585917E-07    3.2350178263E-07    3.1629191690E-07
    3.0924260814E-07    3.0235028487E-07    2.9561145437E-07    2.8902270152E-07
    2.8258068710E-07    2.7628214611E-07    2.7012388609E-07    2.6410278555E-07
    2.5821579235E-07    2.5245992154E-07    2.4683225589E-07    2.4132994237E-07
    2.3595019139E-07    2.3069027533E-07    2.2554752724E-07    2.2051933941E-07
    2.1560316214E-07    2.1079650239E-07    2.0609692214E-07    2.0150203821E-07
    1.9700952044E-07    1.9261709026E-07    1.8832251980E-07    1.8412363069E-07
    1.8001829301E-07    1.7600442419E-07    1.7207998798E-07    1.6824299326E-07
    1.6449149308E-07    1.6082358447E-07    1.5723740641E-07    1.5373113925E-07
    1.5030300382E-07    1.4695126051E-07    1.4367420841E-07    1.4047018443E-07
    1.3733756247E-07    1.3427475226E-07    1.3128019948E-07    1.2835238430E-07
    1.2548982062E-07    1.2269105535E-07    1.1995466775E-07    1.1727926868E-07
    1.1466349989E-07    1.1210603336E-07    1.0960557059E-07    1.0716084162E-07
    1.0477060553E-07    1.0243364863E-07    1.0014878425E-07    9.7914852089E-08
    9.5730717700E-08    9.3595271857E-08    9.1507430019E-08    8.9466131778E-08
    8.7470340219E-08    8.5519041457E-08    8.3611244605E-08    8.1745980572E-08
    7.9922301838E-08    7.8139281968E-08    7.6396015146E-08    7.4691615713E-08
    7.3025217724E-08    7.1395974505E-08    6.9803058098E-08    6.8245659052E-08
    6.6722986194E-08    6.5234265783E-08    6.3778741299E-08    6.2355673062E-08
    6.0964337857E-08    5.9604028568E-08    5.8274053822E-08    5.6973737634E-08
    5.5702418957E-08    5.4459451526E-08    5.3244203695E-08    5.2056057722E-08
    5.0894409617E-08    4.9758668839E-08    4.8648257993E-08    4.7562612544E-08
    4.6501180521E-08    4.5463422247E-08    4.4448809993E-08    4.3456827747E-08
    4.2486971277E-08    4.1538747414E-08    4.0611673967E-08    3.9705279488E-08
    3.8819103025E-08    3.7952693891E-08    3.7105611437E-08    3.6277424825E-08
    3.5467712808E-08    3.4676063335E-08    3.3902073934E-08    3.3145350904E-08
    3.2405509314E-08    3.1682172806E-08    3.0974973407E-08    3.0283551336E-08
    2.9607554829E-08    2.8946639956E-08    2.8300470448E-08    2.7668717409E-08
    2.7051059453E-08    2.6447182360E-08    2.5856778853E-08    2.5279548501E-08
    2.4715197565E-08    2.4163438850E-08    2.3623991560E-08    2.3096581153E-08
    2.2580939204E-08    2.2076803244E-08    2.1583916577E-08    2.1102028461E-08
    2.0630893620E-08    2.0170272239E-08    1.9719929852E-08    1.9279637213E-08
    1.8849170186E-08    1.8428309628E-08    1.8016841282E-08    1.7614555661E-08
    1.7221247877E-08    1.6836717696E-08    1.6460769398E-08    1.6093211567E-08
    1.5733857051E-08    1.5382522871E-08    1.5039030126E-08    1.4703203902E-08
    1.4374873180E-08    1.4053870758E-08    1.3740033155E-08    1.3433200446E-08
    1.3133216435E-08    1.2839928363E-08    1.2553186853E-08    1.2272845860E-08
    1.1998762594E-08    1.1730797448E-08    1.1468813926E-08    1.1212678574E-08
    1.0962260914E-08    1.0717433376E-08    1.0478071145E-08    1.0244052364E-08
    1.0015257820E-08    9.7915709497E-09    9.5728777899E-09    9.3590669178E-09
    9.1500293945E-09    8.9456587096E-09    8.7458507273E-09    8.5505036337E-09
    8.3595178845E-09    8.1727960793E-09    7.9902431384E-09    7.8117660401E-09
    7.6372738312E-09    7.4666775868E-09    7.2998903647E-09    7.1368271613E-09
    6.9774048682E-09    6.8215422302E-09    6.6691598040E-09    6.5201799175E-09
    6.3745265761E-09    6.2321255775E-09    6.0929043497E-09    5.9567919257E-09
    5.8237189208E-09    5.6936174980E-09    5.5664213328E-09    5.4420655799E-09
    5.3204868402E-09    5.2016231282E-09    5.0854138410E-09    4.9717996966E-09
    4.8607227699E-09    4.7521264547E-09    4.6459553802E-09    4.5421554110E-09
    4.4406736187E-09    4.3414582559E-09    4.2444587289E-09    4.1496255728E-09
    4.0569104258E-09    3.9662660049E-09    3.8776460756E-09    3.7910054041E-09
    3.7062998474E-09    3.6234862054E-09    3.5425222418E-09    3.4633666625E-09
    3.3859790946E-09    3.3103200657E-09    3.2363509840E-09    3.1640341185E-09
    3.0933325800E-09    3.0242103020E-09    2.9566319992E-09    2.8905632041E-09
    2.8259702309E-09    2.7628201283E-09    2.7010806803E-09    2.6407203895E-09
    2.5817084614E-09    2.5240147884E-09    2.4676099346E-09    2.4124651208E-09
    2.3585522102E-09    2.3058436933E-09    2.2543126439E-09    2.2039327957E-09
    2.1546784458E-09    2.1065244614E-09    2.0594462705E-09    2.0134198494E-09
    1.9684217104E-09    1.9244288900E-09    1.8814189371E-09    1.8393699013E-09
    1.7982603224E-09    1.7580692165E-09    1.7187760462E-09    1.6803607840E-09
    1.6428038237E-09    1.6060859967E-09    1.5701885621E-09    1.5350931973E-09
    1.5007819885E-09    1.4672374218E-09    1.4344423740E-09    1.4023801042E-09
    1.3710342448E-09    1.3403887912E-09    1.3104280800E-09    1.2811368378E-09
    1.2525001117E-09    1.2245032825E-09    1.1971320572E-09    1.1703724620E-09
    1.1442108347E-09    1.1186338183E-09    1.0936283538E-09    1.0691816737E-09
    1.0452812953E-09    1.0219150146E-09    9.9907088058E-10    9.7673724866E-10
    9.5490271515E-10    9.3355613094E-10    9.1268659580E-10    8.9228345283E-10
    8.7233628299E-10    8.5283489982E-10    8.3376934422E-10    8.1512987940E-10
    7.9690698593E-10    7.7909135684E-10    7.6167388067E-10    7.4464567024E-10
    7.2799803305E-10    7.1172246675E-10    6.9581065878E-10    6.8025448220E-10
    6.6504599146E-10    6.5017741842E-10    6.3564116832E-10    6.2142981597E-10
    6.0753610192E-10    5.9395292879E-10    5.8067335290E-10    5.6769058657E-10
    5.5499800665E-10    5.4258912943E-10    5.3045761600E-10    5.1859726893E-10
    5.0700202922E-10    4.9566597311E-10    4.8458330910E-10    4.7374837499E-10
    4.6315563500E-10    4.5279967694E-10    4.4267520949E-10    4.3277705054E-10
    4.2310014961E-10    4.1363956466E-10    4.0439046194E-10    3.9534811567E-10
    3.8650790557E-10    3.7786531452E-10    3.6941592628E-10    3.6115542322E-10
    3.5307958409E-10    3.4518428192E-10    3.3746548188E-10    3.2991923825E-10
    3.2254168742E-10    3.1532906731E-10    3.0827769208E-10    3.0138395821E-10
    2.9464434266E-10    2.8805540107E-10    2.8161376597E-10    2.7531614513E-10
    2.6915931980E-10    2.6314014312E-10    2.5725553850E-10    2.5150249806E-10
    2.4587807920E-10    2.4037940341E-10    2.3500366568E-10    2.2974811831E-10
    2.2461007502E-10    2.1958690951E-10    2.1467605413E-10    2.0987499858E-10
    2.0518128862E-10    2.0059252482E-10    1.9610636133E-10    1.9172050469E-10
    1.8743271268E-10    1.8324079162E-10    1.7914259545E-10    1.7513603357E-10
    1.7121905775E-10    1.6738966553E-10    1.6364589915E-10    1.5998584462E-10
    1.5640763066E-10    1.5290942780E-10    1.4948944744E-10    1.4614594091E-10
    1.4287719860E-10    1.3968154909E-10    1.3655735785E-10    1.3350302339E-10
    1.3051698839E-10    1.2759772606E-10    1.2474374374E-10    1.2195358211E-10
    1.1922581444E-10    1.1655904588E-10    1.1395191272E-10    1.1140308174E-10
    1.0891124946E-10    1.0647514154E-10    1.0409351210E-10    1.0176514309E-10
    9.9488840679E-11    9.7263442860E-11    9.5087812470E-11    9.2960836890E-11
    9.0881428362E-11    8.8848523428E-11    8.6861082385E-11    8.4918088758E-11
    8.3018548775E-11    8.1161490865E-11    7.9345965157E-11    7.7571043000E-11
    7.5835816488E-11    7.4139397080E-11    7.2480915742E-11    7.0859526401E-11
    6.9274399748E-11    6.7724725009E-11    6.6209709523E-11    6.4728578339E-11
    6.3280573818E-11    6.1864955248E-11    6.0480998461E-11    5.9127995469E-11
    5.7805254097E-11    5.6512097637E-11    5.5247864497E-11    5.4011906240E-11
    5.2803591334E-11    5.1622302524E-11    5.0467435506E-11    4.9338399479E-11
    4.8234616843E-11    4.7155522906E-11    4.6100565588E-11    4.5069205146E-11
    4.4060913893E-11    4.3075175932E-11    4.2111486891E-11    4.1169353668E-11
    4.0248294176E-11    3.9347835420E-11    3.8467518065E-11    3.7606892010E-11
    3.6765516922E-11    3.5942962307E-11    3.5138807292E-11    3.4352640407E-11
    3.3584059375E-11    3.2832670908E-11    3.2098090505E-11    3.1379942254E-11
    3.0677858641E-11    2.9991480367E-11    2.9320456158E-11    2.8664441208E-11
    2.8023101013E-11    2.7396107583E-11    2.6783140074E-11    2.6183884812E-11
    2.5598035132E-11    2.5025291225E-11    2.4465359976E-11    2.3917954824E-11
    2.3382795606E-11    2.2859608422E-11    2.2348125491E-11    2.1848085015E-11
    2.1359231046E-11    2.0881312432E-11    2.0414085173E-11    1.9957310473E-11
    1.9510754558E-11    1.9074188881E-11    1.8647390003E-11    1.8230139477E-11
    1.7822223737E-11    1.7423433992E-11    1.7033566111E-11    1.6652420530E-11
    1.6279802140E-11    1.5915520192E-11    1.5559388203E-11    1.5211223425E-11
    1.4870847504E-11    1.4538086773E-11    1.4212770904E-11    1.3894733381E-11
    1.3583811407E-11    1.3279845824E-11    1.2982681029E-11    1.2692164900E-11
    1.2408148710E-11    1.2130487058E-11    1.1859037791E-11    1.1593661933E-11
    1.1334223612E-11    1.1080589996E-11    1.0832630483E-11    1.0590218838E-11
    1.0353231000E-11    1.0121545646E-11    9.8950441689E-12    9.6736106105E-12
    9.4571316045E-12    9.2454963182E-12    9.0385963954E-12    8.8363259014E-12
    8.6385812684E-12    8.4452612433E-12    8.2562668355E-12    8.0715012667E-12
    7.8908697382E-12    7.7142795206E-12    7.5416406202E-12    7.3728646486E-12
    7.2078651931E-12    7.0465577727E-12    6.8888597947E-12    6.7346905124E-12
    6.5839709832E-12    6.4366240292E-12    6.2925741967E-12    6.1517477184E-12
    6.0140724752E-12    5.8794779601E-12    5.7478952414E-12    5.6192567057E-12
    5.4934964529E-12    5.3705503335E-12    5.2503553930E-12    5.1328500845E-12
    5.0179742369E-12    4.9056690239E-12    4.7958769340E-12    4.6885417413E-12
    4.5836084760E-12    4.4810233969E-12    4.3807339637E-12    4.2826888105E-12
    4.1868377189E-12    4.0931315932E-12    4.0015222646E-12    3.9119627907E-12
    3.8244075002E-12    3.7388115553E-12    3.6551311207E-12    3.5733233410E-12
    3.4933463189E-12    3.4151590933E-12    3.3387216188E-12    3.2639947447E-12
    3.1909401954E-12    3.1195205507E-12    3.0496992264E-12    2.9814404562E-12
    2.9147092731E-12    2.8494714120E-12    2.7856933331E-12    2.7233425719E-12
    2.6623871947E-12    2.6027959818E-12    2.5445384113E-12    2.4875846438E-12
    2.4319055068E-12    2.3774724798E-12    2.3242576796E-12    2.2722338463E-12
    2.2213743292E-12    2.1716530731E-12    2.1230446050E-12    2.0755240214E-12
    2.0290669754E-12    1.9836494680E-12    1.9392484124E-12    1.8958410844E-12
    1.8534052495E-12    1.8119191707E-12    1.7713615967E-12    1.7317117514E-12
    1.6929493230E-12    1.6550544536E-12    1.6180077291E-12    1.5817901696E-12
    1.5463832188E-12    1.5117687356E-12    1.4779289841E-12    1.4448466249E-12
    1.4125046464E-12    1.3808864320E-12    1.3499758896E-12    1.3197571848E-12
    1.2902148371E-12    1.2613337120E-12    1.2330990136E-12    1.2054962765E-12
    1.1785113587E-12    1.1521304344E-12    1.1263399865E-12    1.1011268003E-12
    1.0764779562E-12    1.0523808235E-12    1.0288230535E-12    1.0057925739E-12
    9.8327750395E-13    9.6126633764E-13    9.3974784578E-13    9.1871100394E-13
    8.9814503421E-13    8.7803939967E-13    8.5838379893E-13    8.3916816086E-13
    8.2038263946E-13    8.0201760875E-13    7.8406365789E-13    7.6651158636E-13
    7.4935239924E-13    7.3257730265E-13    7.1617769927E-13    7.0014518392E-13
    6.8447147324E-13    6.6914857230E-13    6.5416865944E-13    6.3952405935E-13
    6.2520726838E-13    6.1121095065E-13    5.9752793425E-13    5.8415120762E-13
    5.7107391587E-13    5.5828935736E-13    5.4579098019E-13    5.3357237889E-13
    5.2162729113E-13    5.0994959457E-13    4.9853330367E-13    4.8737256669E-13
    4.7646162135E-13    4.6579488633E-13    4.5536692658E-13    4.4517239865E-13
    4.3520607856E-13    4.2546285915E-13    4.1593774744E-13    4.0662586204E-13
    3.9752243068E-13    3.8862278775E-13    3.7992237191E-13    3.7141672373E-13
    3.6310148348E-13    3.5497238883E-13    3.4702527273E-13    3.3925606126E-13
    3.3166075741E-13    3.2423544182E-13    3.1697634933E-13    3.0987975996E-13
    3.0294203694E-13    2.9615962480E-13    2.8952904757E-13    2.8304690700E-13
    2.7670988076E-13    2.7051472081E-13    2.6445825169E-13    2.5853736888E-13
    2.5274903727E-13    2.4709028955E-13    2.4155822476E-13    2.3615000674E-13
    2.3086286275E-13    2.2569405149E-13    2.2064094402E-13    2.1570096072E-13
    2.1087156982E-13    2.0615029617E-13    2.0153471997E-13    1.9702247551E-13
    1.9261124997E-13    1.8829878222E-13    1.8408286164E-13    1.7996132705E-13
    1.7593206555E-13    1.7199301145E-13    1.6814214522E-13    1.6437749249E-13
    1.6069712299E-13    1.5709914824E-13    1.5358169584E-13    1.5014299177E-13
    1.4678127355E-13    1.4349481815E-13    1.4028194104E-13    1.3714099539E-13
    1.3407037115E-13    1.3106849429E-13    1.2813382593E-13    1.2526486160E-13
    1.2246013044E-13    1.1971819447E-13    1.1703764784E-13    1.1441711610E-13
    1.1185525553E-13    1.0935075246E-13    1.0690231945E-13    1.0450868470E-13
    1.0216864060E-13    9.9880987701E-14    9.7644553385E-14    9.5458191246E-14
    9.3320780515E-14    9.1231225477E-14    8.9188454905E-14    8.7191421519E-14
    8.5239101438E-14    8.3330493665E-14    8.1464619566E-14    7.9640522379E-14
    7.7857266721E-14    7.6113938111E-14    7.4409642508E-14    7.2743505400E-14
    7.1114656600E-14    6.9522277225E-14    6.7965551004E-14    6.6443679922E-14
    6.4955883810E-14    6.3501399943E-14    6.2079482645E-14    6.0689402910E-14
    5.9330448024E-14    5.8001921197E-14    5.6703141214E-14    5.5433442078E-14
    5.4192172674E-14    5.2978696438E-14    5.1792391029E-14    5.0632648014E-14
    4.9498872561E-14    4.8390474436E-14    4.7306890466E-14    4.6247568680E-14
    4.5211966011E-14    4.4199551540E-14    4.3209806216E-14    4.2242222593E-14
    4.1296304569E-14    4.0371567128E-14    3.9467536092E-14    3.8583747882E-14
    3.7719749273E-14    3.6875097170E-14    3.6049358377E-14    3.5242109377E-14
    3.4452936117E-14    3.3681433798E-14    3.2927204985E-14    3.2189857232E-14
    3.1469019758E-14    3.0764323002E-14    3.0075405669E-14    2.9401914546E-14
    2.8743504313E-14    2.8099837373E-14    2.7470583671E-14    2.6855420532E-14
    2.6254032487E-14    2.5666111119E-14    2.5091354901E-14    2.4529469041E-14
    2.3980165335E-14    2.3443162020E-14    2.2918183625E-14    2.2404960840E-14
    2.1903227408E-14    2.1412725387E-14    2.0933206843E-14    2.0464425921E-14
    2.0006142261E-14    1.9558120879E-14    1.9120132045E-14    1.8691951164E-14
    1.8273358660E-14    1.7864139863E-14    1.7464084900E-14    1.7072988590E-14
    1.6690650330E-14    1.6316874004E-14    1.5951467875E-14    1.5594244491E-14
    1.5245020586E-14    1.4903616994E-14    1.4569856147E-14    1.4243566920E-14
    1.3924584334E-14    1.3612744833E-14    1.3307888515E-14    1.3009859057E-14
    1.2718503630E-14    1.2433672820E-14    1.2155220553E-14    1.1883004018E-14
    1.1616883596E-14    1.1356722786E-14    1.1102388139E-14    1.0853749183E-14
    1.0610678365E-14    1.0373050978E-14    1.0140745104E-14    9.9136415473E-15
    9.6916225972E-15    9.4745732995E-15    9.2623845842E-15    9.0549476462E-15
    8.8521561141E-15    8.6539059950E-15    8.4600956206E-15    8.2706255956E-15
    8.0853987455E-15    7.9043200675E-15    7.7272966812E-15    7.5542377810E-15
    7.3850545899E-15    7.2196603140E-15    7.0579700980E-15    6.8999009824E-15
    6.7453718608E-15    6.5943034394E-15    6.4466181961E-15    6.3022379786E-15
    6.1610910193E-15    6.0231050212E-15    5.8882092236E-15    5.7563344479E-15
    5.6274130624E-15    5.5013789471E-15    5.3781674596E-15    5.2577154022E-15
    5.1399609888E-15    5.0248438138E-15    4.9123048207E-15    4.8022862723E-15
    4.6947317208E-15    4.5895859794E-15    4.4867950940E-15    4.3863063157E-15
    4.2880680746E-15    4.1920293124E-15    4.0981402800E-15    4.0063539366E-15
    3.9166232115E-15    3.8289020867E-15    3.7431455733E-15    3.6593096880E-15
    3.5773514306E-15    3.4972287618E-15    3.4189005814E-15    3.3423267076E-15
    3.2674678560E-15    3.1942856196E-15    3.1227424491E-15    3.0528016341E-15
    2.9844272839E-15    2.9175843095E-15    2.8522384057E-15    2.7883560339E-15
    2.7259037304E-15    2.6648495553E-15    2.6051627662E-15    2.5468127524E-15
    2.4897695875E-15    2.4340040146E-15    2.3794874304E-15    2.3261918712E-15
    2.2740899980E-15    2.2231550824E-15    2.1733609933E-15    2.1246821831E-15
    2.0770936748E-15    2.0305710490E-15    1.9850904320E-15    1.9406284828E-15
    1.8971623821E-15    1.8546698202E-15    1.8131289856E-15    1.7725181209E-15
    1.7328163731E-15    1.6940038261E-15    1.6560605737E-15    1.6189671549E-15
    1.5827045437E-15    1.5472541396E-15    1.5125977576E-15    1.4787176192E-15
    1.4455963429E-15    1.4132169355E-15    1.3815627832E-15    1.3506176434E-15
    1.3203656360E-15    1.2907912357E-15    1.2618792636E-15    1.2336148800E-15
    1.2059835765E-15    1.1789711690E-15    1.1525636571E-15    1.1267471324E-15
    1.1015088385E-15    1.0768358306E-15    1.0527154536E-15    1.0291353352E-15
    1.0060833799E-15    9.8354776215E-16    9.6151692100E-16    9.3997955353E-16
    9.1892460934E-16    8.9834128481E-16    8.7821901753E-16    8.5854748094E-16
    8.3931657905E-16    8.2051644126E-16    8.0213741739E-16    7.8417007274E-16
    7.6660518331E-16    7.4943373117E-16    7.3264659444E-16    7.1623533637E-16
    7.0019166706E-16    6.8450735725E-16    6.6917436169E-16    6.5418481500E-16
    6.3953102759E-16    6.2520548168E-16    6.1120082746E-16    5.9750987926E-16
    5.8412561188E-16    5.7104115697E-16    5.5824979955E-16    5.4574497453E-16
    5.3352026338E-16    5.2156939087E-16    5.0988622187E-16    4.9846475823E-16
    4.8729913578E-16    4.7638362130E-16    4.6571232001E-16    4.5528003511E-16
    4.4508142705E-16    4.3511126442E-16    4.2536443275E-16    4.1583593192E-16
    4.0652087354E-16    3.9741447845E-16    3.8851207422E-16    3.7980909277E-16
    3.7130106805E-16    3.6298363367E-16    3.5485252074E-16    3.4690355565E-16
    3.3913265797E-16    3.3153583831E-16    3.2410919637E-16    3.1684891894E-16
    3.0975127792E-16    3.0281262850E-16    2.9602920264E-16    2.8939772072E-16
    2.8291478499E-16    2.7657706989E-16    2.7038132416E-16    2.6432436925E-16
    2.5840309764E-16    2.5261447121E-16    2.4695551971E-16    2.4142333923E-16
    2.3601509067E-16    2.3072799832E-16    2.2555934841E-16    2.2050648777E-16
    2.1556682241E-16    2.1073781625E-16    2.0601698981E-16    2.0140191898E-16
    1.9689023373E-16    1.9247961701E-16    1.8816769404E-16    1.8395232684E-16
    1.7983138741E-16    1.7580276174E-16    1.7186438311E-16    1.6801423097E-16
    1.6425032993E-16    1.6057074875E-16    1.5697359930E-16    1.5345703561E-16
    1.5001925294E-16    1.4665848683E-16    1.4337301217E-16    1.4016114239E-16
    1.3702122852E-16    1.3395165842E-16    1.3095085589E-16    1.2801727995E-16
    1.2514942398E-16    1.2234581501E-16    1.1960498360E-16    1.1692548244E-16
    1.1430600600E-16    1.1174521047E-16    1.0924178211E-16    1.0679443656E-16
    1.0440191814E-16    1.0206299924E-16    9.9776479655E-17    9.7541185997E-17
    9.5355971062E-17    9.3219713255E-17    9.1131316010E-17    8.9089707231E-17
    8.7093838742E-17    8.5142685754E-17    8.3235246342E-17    8.1370540937E-17
    7.9547611832E-17    7.7765522694E-17    7.6023358094E-17    7.4320183461E-17
    7.2655136382E-17    7.1027390198E-17    6.9436109838E-17    6.7880478899E-17
    6.6359699232E-17    6.4872990517E-17    6.3419589870E-17    6.1998751439E-17
    6.0609746028E-17    5.9251860713E-17    5.7924398483E-17    5.6626677878E-17
    5.5358032641E-17    5.4117811378E-17    5.2905377228E-17    5.1720107534E-17
    5.0561393533E-17    4.9428640044E-17    4.8321265168E-17    4.7238699998E-17
    4.6180359556E-17    4.5145712517E-17    4.4134244773E-17    4.3145437398E-17
    4.2178783071E-17    4.1233785807E-17    4.0309960706E-17    3.9406833697E-17
    3.8523941295E-17    3.7660830362E-17    3.6817057872E-17    3.5992190685E-17
    3.5185805324E-17    3.4397487759E-17    3.3626833194E-17    3.2873445861E-17
    3.2136938820E-17    3.1416933762E-17    3.0713060817E-17    3.0024958367E-17
    2.9352272866E-17    2.8694645661E-17    2.8051734344E-17    2.7423226682E-17
    2.6808800217E-17    2.6208139703E-17    2.5620936936E-17    2.5046890601E-17
    2.4485706115E-17    2.3937095468E-17    2.3400777083E-17    2.2876475665E-17
    2.2363922061E-17    2.1862853123E-17    2.1373011571E-17    2.0894145862E-17
    2.0426010065E-17    1.9968363731E-17    1.9520971773E-17    1.9083604348E-17
    1.8656036740E-17    1.8238049248E-17    1.7829427070E-17    1.7429940503E-17
    1.7039403419E-17    1.6657616243E-17    1.6284383087E-17    1.5919512443E-17
    1.5562817080E-17    1.5214113952E-17    1.4873224099E-17    1.4539972556E-17
    1.4214188263E-17    1.3895703976E-17    1.3584356182E-17    1.3279985013E-17
    1.2982434169E-17    1.2691550831E-17    1.2407185589E-17    1.2129192365E-17
    1.1857428336E-17    1.1591753865E-17    1.1332032430E-17    1.1078130554E-17
    1.0829914448E-17    1.0587249490E-17    1.0350021518E-17    1.0118108815E-17
    9.8913923863E-18    9.6697558963E-18    9.4530856085E-18    9.2412703269E-18
    9.0342013376E-18    8.8317723533E-18    8.6338794580E-18    8.4404210538E-18
    8.2512978081E-18    8.0664126035E-18    7.8856704874E-18    7.7089786239E-18
    7.5362462464E-18    7.3673846117E-18    7.2023069545E-18    7.0409284444E-18
    6.8831661425E-18    6.7289389599E-18
   </PP_CHI.2>
   <PP_CHI.3
       type="real"
       size="1854"
       columns="4"
       index="3"
       occupation=" 2.000"
       pseudo_energy="   -0.5759136024E+00"
       label="3S"
       l="0" >
   -1.9346496627E-11    1.1421067790E-02    2.2821732995E-02    3.4181649303E-02
    4.5480582622E-02    5.6698466297E-02    6.7815455272E-02    7.8811978871E-02
    8.9668791871E-02    1.0036702358E-01    1.1088822462E-01    1.2121441126E-01
    1.3132810690E-01    1.4121238071E-01    1.5085088316E-01    1.6022787835E-01
    1.6932827303E-01    1.7813764228E-01    1.8664225182E-01    1.9482907697E-01
    2.0268581830E-01    2.1020091404E-01    2.1736354940E-01    2.2416366284E-01
    2.3059194954E-01    2.3663986222E-01    2.4229960945E-01    2.4756415172E-01
    2.5242719548E-01    2.5688318534E-01    2.6092729465E-01    2.6455541474E-01
    2.6776414301E-01    2.7055077007E-01    2.7291326612E-01    2.7485026679E-01
    2.7636105868E-01    2.7744556454E-01    2.7810432848E-01    2.7833850112E-01
    2.7814982494E-01    2.7754061971E-01    2.7651376826E-01    2.7507270234E-01
    2.7322138892E-01    2.7096431656E-01    2.6830648199E-01    2.6525337690E-01
    2.6181097466E-01    2.5798571708E-01    2.5378450100E-01    2.4921466468E-01
    2.4428397374E-01    2.3900060675E-01    2.3337314017E-01    2.2741053263E-01
    2.2112210844E-01    2.1451754018E-01    2.0760683039E-01    2.0040029217E-01
    1.9290852885E-01    1.8514241236E-01    1.7711306069E-01    1.6883181410E-01
    1.6031021038E-01    1.5155995896E-01    1.4259291422E-01    1.3342104779E-01
    1.2405642021E-01    1.1451115194E-01    1.0479739390E-01    9.4927297654E-02
    8.4912985534E-02    7.4766520729E-02    6.4499877655E-02    5.4124912720E-02
    4.3653335734E-02    3.3096682120E-02    2.2466286142E-02    1.1773255332E-02
    1.0284462820E-03   -9.7575580195E-03   -2.0574469166E-02   -3.1412312489E-02
   -4.2261444268E-02   -5.3112566908E-02   -6.3956742003E-02   -7.4785401221E-02
   -8.5590354997E-02   -9.6363799012E-02   -1.0709831846E-01   -1.1778689019E-01
   -1.2842288265E-01   -1.3900005395E-01   -1.4951254779E-01   -1.5995488777E-01
   -1.7032196985E-01   -1.8060905331E-01   -1.9081175033E-01   -2.0092601432E-01
   -2.1094812711E-01   -2.2087468535E-01   -2.3070258613E-01   -2.4042901198E-01
   -2.5005141562E-01   -2.5956750440E-01   -2.6897522465E-01   -2.7827274623E-01
   -2.8745844717E-01   -2.9653089876E-01   -3.0548885103E-01   -3.1433121882E-01
   -3.2305706849E-01   -3.3166560530E-01   -3.4015616164E-01   -3.4852818592E-01
   -3.5678123243E-01   -3.6491495195E-01   -3.7292908319E-01   -3.8082344510E-01
   -3.8859792997E-01   -3.9625249725E-01   -4.0378716816E-01   -4.1120202097E-01
   -4.1849718690E-01   -4.2567284664E-01   -4.3272922741E-01   -4.3966660050E-01
   -4.4648527930E-01   -4.5318561769E-01   -4.5976800875E-01   -4.6623288406E-01
   -4.7258071319E-01   -4.7881200423E-01   -4.8492730158E-01   -4.9092718311E-01
   -4.9681225570E-01   -5.0258315417E-01   -5.0824054333E-01   -5.1378511379E-01
   -5.1921757958E-01   -5.2453867752E-01   -5.2974916564E-01   -5.3484982154E-01
   -5.3984144112E-01   -5.4472483730E-01   -5.4950083880E-01   -5.5417028898E-01
   -5.5873404477E-01   -5.6319297561E-01   -5.6754796253E-01   -5.7179989718E-01
   -5.7594968098E-01   -5.7999822431E-01   -5.8394644570E-01   -5.8779527112E-01
   -5.9154563326E-01   -5.9519847088E-01   -5.9875472818E-01   -6.0221535419E-01
   -6.0558130221E-01   -6.0885352928E-01   -6.1203299566E-01   -6.1512066433E-01
   -6.1811750056E-01   -6.2102447144E-01   -6.2384254544E-01   -6.2657269205E-01
   -6.2921588138E-01   -6.3177308378E-01   -6.3424526949E-01   -6.3663340831E-01
   -6.3893846929E-01   -6.4116142038E-01   -6.4330322818E-01   -6.4536485764E-01
   -6.4734727176E-01   -6.4925143138E-01   -6.5107829488E-01   -6.5282881798E-01
   -6.5450395347E-01   -6.5610465102E-01   -6.5763185694E-01   -6.5908651401E-01
   -6.6046956123E-01   -6.6178193369E-01   -6.6302456235E-01   -6.6419837388E-01
   -6.6530429049E-01   -6.6634322977E-01   -6.6731610453E-01   -6.6822382269E-01
   -6.6906728707E-01   -6.6984739533E-01   -6.7056503978E-01   -6.7122110730E-01
   -6.7181647921E-01   -6.7235203115E-01   -6.7282863299E-01   -6.7324714870E-01
   -6.7360843630E-01   -6.7391334771E-01   -6.7416272873E-01   -6.7435741891E-01
   -6.7449825149E-01   -6.7458605332E-01   -6.7462164480E-01   -6.7460583984E-01
   -6.7453944574E-01   -6.7442326320E-01   -6.7425808621E-01   -6.7404470205E-01
   -6.7378389123E-01   -6.7347642744E-01   -6.7312307752E-01   -6.7272460144E-01
   -6.7228175223E-01   -6.7179527600E-01   -6.7126591191E-01   -6.7069439211E-01
   -6.7008144177E-01   -6.6942777904E-01   -6.6873411504E-01   -6.6800115386E-01
   -6.6722959255E-01   -6.6642012111E-01   -6.6557342251E-01   -6.6469017265E-01
   -6.6377104042E-01   -6.6281668764E-01   -6.6182776915E-01   -6.6080493272E-01
   -6.5974881917E-01   -6.5866006230E-01   -6.5753928893E-01   -6.5638711896E-01
   -6.5520416531E-01   -6.5399103403E-01   -6.5274832424E-01   -6.5147662823E-01
   -6.5017653143E-01   -6.4884861245E-01   -6.4749344315E-01   -6.4611158860E-01
   -6.4470360718E-01   -6.4327005057E-01   -6.4181146378E-01   -6.4032838524E-01
   -6.3882134676E-01   -6.3729087363E-01   -6.3573748463E-01   -6.3416169207E-01
   -6.3256400182E-01   -6.3094491338E-01   -6.2930491991E-01   -6.2764450826E-01
   -6.2596415901E-01   -6.2426434656E-01   -6.2254553909E-01   -6.2080819871E-01
   -6.1905278141E-01   -6.1727973715E-01   -6.1548950993E-01   -6.1368253778E-01
   -6.1185925285E-01   -6.1002008146E-01   -6.0816544411E-01   -6.0629575555E-01
   -6.0441142487E-01   -6.0251285545E-01   -6.0060044513E-01   -5.9867458615E-01
   -5.9673566527E-01   -5.9478406381E-01   -5.9282015766E-01   -5.9084431737E-01
   -5.8885690820E-01   -5.8685829015E-01   -5.8484881801E-01   -5.8282884142E-01
   -5.8079870494E-01   -5.7875874805E-01   -5.7670930524E-01   -5.7465070607E-01
   -5.7258327518E-01   -5.7050733235E-01   -5.6842319258E-01   -5.6633116611E-01
   -5.6423155848E-01   -5.6212467058E-01   -5.6001079871E-01   -5.5789023459E-01
   -5.5576326546E-01   -5.5363017409E-01   -5.5149123886E-01   -5.4934673377E-01
   -5.4719692855E-01   -5.4504208861E-01   -5.4288247521E-01   -5.4071834539E-01
   -5.3854995211E-01   -5.3637754424E-01   -5.3420136663E-01   -5.3202166014E-01
   -5.2983866172E-01   -5.2765260441E-01   -5.2546371743E-01   -5.2327222619E-01
   -5.2107835236E-01   -5.1888231390E-01   -5.1668432509E-01   -5.1448459664E-01
   -5.1228333563E-01   -5.1008074566E-01   -5.0787702680E-01   -5.0567237570E-01
   -5.0346698562E-01   -5.0126104642E-01   -4.9905474469E-01   -4.9684826370E-01
   -4.9464178351E-01   -4.9243548098E-01   -4.9022952982E-01   -4.8802410061E-01
   -4.8581936087E-01   -4.8361547508E-01   -4.8141260472E-01   -4.7921090832E-01
   -4.7701054147E-01   -4.7481165691E-01   -4.7261440452E-01   -4.7041893136E-01
   -4.6822538173E-01   -4.6603389721E-01   -4.6384461665E-01   -4.6165767628E-01
   -4.5947320967E-01   -4.5729134780E-01   -4.5511221912E-01   -4.5293594953E-01
   -4.5076266245E-01   -4.4859247885E-01   -4.4642551728E-01   -4.4426189389E-01
   -4.4210172247E-01   -4.3994511452E-01   -4.3779217921E-01   -4.3564302346E-01
   -4.3349775198E-01   -4.3135646727E-01   -4.2921926964E-01   -4.2708625730E-01
   -4.2495752633E-01   -4.2283317074E-01   -4.2071328249E-01   -4.1859795152E-01
   -4.1648726578E-01   -4.1438131126E-01   -4.1228017201E-01   -4.1018393018E-01
   -4.0809266602E-01   -4.0600645796E-01   -4.0392538258E-01   -4.0184951468E-01
   -3.9977892725E-01   -3.9771369158E-01   -3.9565387721E-01   -3.9359955198E-01
   -3.9155078207E-01   -3.8950763201E-01   -3.8747016470E-01   -3.8543844145E-01
   -3.8341252200E-01   -3.8139246452E-01   -3.7937832565E-01   -3.7737016056E-01
   -3.7536802289E-01   -3.7337196485E-01   -3.7138203720E-01   -3.6939828929E-01
   -3.6742076906E-01   -3.6544952309E-01   -3.6348459660E-01   -3.6152603348E-01
   -3.5957387631E-01   -3.5762816638E-01   -3.5568894369E-01   -3.5375624701E-01
   -3.5183011388E-01   -3.4991058060E-01   -3.4799768230E-01   -3.4609145293E-01
   -3.4419192527E-01   -3.4229913097E-01   -3.4041310057E-01   -3.3853386350E-01
   -3.3666144809E-01   -3.3479588161E-01   -3.3293719030E-01   -3.3108539934E-01
   -3.2924053291E-01   -3.2740261417E-01   -3.2557166531E-01   -3.2374770756E-01
   -3.2193076118E-01   -3.2012084549E-01   -3.1831797892E-01   -3.1652217896E-01
   -3.1473346222E-01   -3.1295184444E-01   -3.1117734049E-01   -3.0940996440E-01
   -3.0764972936E-01   -3.0589664775E-01   -3.0415073115E-01   -3.0241199032E-01
   -3.0068043527E-01   -2.9895607524E-01   -2.9723891872E-01   -2.9552897345E-01
   -2.9382624646E-01   -2.9213074405E-01   -2.9044247184E-01   -2.8876143475E-01
   -2.8708763702E-01   -2.8542108225E-01   -2.8376177335E-01   -2.8210971262E-01
   -2.8046490172E-01   -2.7882734170E-01   -2.7719703299E-01   -2.7557397543E-01
   -2.7395816829E-01   -2.7234961024E-01   -2.7074829941E-01   -2.6915423336E-01
   -2.6756740913E-01   -2.6598782319E-01   -2.6441547153E-01   -2.6285034960E-01
   -2.6129245236E-01   -2.5974177427E-01   -2.5819830931E-01   -2.5666205098E-01
   -2.5513299233E-01   -2.5361112592E-01   -2.5209644391E-01   -2.5058893798E-01
   -2.4908859941E-01   -2.4759541903E-01   -2.4610938729E-01   -2.4463049421E-01
   -2.4315872942E-01   -2.4169408216E-01   -2.4023654131E-01   -2.3878609535E-01
   -2.3734273241E-01   -2.3590644026E-01   -2.3447720632E-01   -2.3305501766E-01
   -2.3163986104E-01   -2.3023172285E-01   -2.2883058921E-01   -2.2743644589E-01
   -2.2604927837E-01   -2.2466907181E-01   -2.2329581111E-01   -2.2192948085E-01
   -2.2057006535E-01   -2.1921754865E-01   -2.1787191453E-01   -2.1653314649E-01
   -2.1520122780E-01   -2.1387614145E-01   -2.1255787023E-01   -2.1124639664E-01
   -2.0994170298E-01   -2.0864377134E-01   -2.0735258354E-01   -2.0606812124E-01
   -2.0479036584E-01   -2.0351929858E-01   -2.0225490047E-01   -2.0099715235E-01
   -1.9974603484E-01   -1.9850152841E-01   -1.9726361332E-01   -1.9603226970E-01
   -1.9480747745E-01   -1.9358921637E-01   -1.9237746605E-01   -1.9117220595E-01
   -1.8997341538E-01   -1.8878107348E-01   -1.8759515928E-01   -1.8641565166E-01
   -1.8524252936E-01   -1.8407577099E-01   -1.8291535505E-01   -1.8176125990E-01
   -1.8061346380E-01   -1.7947194489E-01   -1.7833668119E-01   -1.7720765063E-01
   -1.7608483104E-01   -1.7496820013E-01   -1.7385773554E-01   -1.7275341479E-01
   -1.7165521536E-01   -1.7056311459E-01   -1.6947708979E-01   -1.6839711814E-01
   -1.6732317680E-01   -1.6625524281E-01   -1.6519329319E-01   -1.6413730485E-01
   -1.6308725466E-01   -1.6204311944E-01   -1.6100487594E-01   -1.5997250086E-01
   -1.5894597085E-01   -1.5792526252E-01   -1.5691035241E-01   -1.5590121707E-01
   -1.5489783295E-01   -1.5390017650E-01   -1.5290822414E-01   -1.5192195223E-01
   -1.5094133712E-01   -1.4996635515E-01   -1.4899698259E-01   -1.4803319574E-01
   -1.4707497084E-01   -1.4612228413E-01   -1.4517511185E-01   -1.4423343019E-01
   -1.4329721536E-01   -1.4236644356E-01   -1.4144109096E-01   -1.4052113376E-01
   -1.3960654813E-01   -1.3869731024E-01   -1.3779339629E-01   -1.3689478245E-01
   -1.3600144492E-01   -1.3511335989E-01   -1.3423050357E-01   -1.3335285217E-01
   -1.3248038192E-01   -1.3161306907E-01   -1.3075088987E-01   -1.2989382061E-01
   -1.2904183757E-01   -1.2819491708E-01   -1.2735303547E-01   -1.2651616910E-01
   -1.2568429437E-01   -1.2485738767E-01   -1.2403542547E-01   -1.2321838422E-01
   -1.2240624044E-01   -1.2159897064E-01   -1.2079655141E-01   -1.1999895934E-01
   -1.1920617107E-01   -1.1841816328E-01   -1.1763491268E-01   -1.1685639603E-01
   -1.1608259011E-01   -1.1531347177E-01   -1.1454901788E-01   -1.1378920537E-01
   -1.1303401120E-01   -1.1228341239E-01   -1.1153738600E-01   -1.1079590914E-01
   -1.1005895897E-01   -1.0932651270E-01   -1.0859854758E-01   -1.0787504094E-01
   -1.0715597012E-01   -1.0644131257E-01   -1.0573104573E-01   -1.0502514715E-01
   -1.0432359441E-01   -1.0362636515E-01   -1.0293343707E-01   -1.0224478792E-01
   -1.0156039552E-01   -1.0088023776E-01   -1.0020429256E-01   -9.9532537925E-02
   -9.8864951917E-02   -9.8201512658E-02   -9.7542198333E-02   -9.6886987193E-02
   -9.6235857552E-02   -9.5588787791E-02   -9.4945756353E-02   -9.4306741749E-02
   -9.3671722558E-02   -9.3040677425E-02   -9.2413585061E-02   -9.1790424248E-02
   -9.1171173835E-02   -9.0555812739E-02   -8.9944319949E-02   -8.9336674523E-02
   -8.8732855588E-02   -8.8132842344E-02   -8.7536614060E-02   -8.6944150078E-02
   -8.6355429810E-02   -8.5770432744E-02   -8.5189138437E-02   -8.4611526519E-02
   -8.4037576697E-02   -8.3467268746E-02   -8.2900582519E-02   -8.2337497942E-02
   -8.1777995014E-02   -8.1222053811E-02   -8.0669654483E-02   -8.0120777253E-02
   -7.9575402423E-02   -7.9033510367E-02   -7.8495081537E-02   -7.7960096462E-02
   -7.7428535743E-02   -7.6900380062E-02   -7.6375610174E-02   -7.5854206913E-02
   -7.5336151189E-02   -7.4821423989E-02   -7.4310006376E-02   -7.3801879492E-02
   -7.3297024555E-02   -7.2795422861E-02   -7.2297055785E-02   -7.1801904776E-02
   -7.1309951364E-02   -7.0821177155E-02   -7.0335563835E-02   -6.9853093165E-02
   -6.9373746986E-02   -6.8897507216E-02   -6.8424355852E-02   -6.7954274968E-02
   -6.7487246717E-02   -6.7023253330E-02   -6.6562277116E-02   -6.6104300461E-02
   -6.5649305832E-02   -6.5197275772E-02   -6.4748192901E-02   -6.4302039921E-02
   -6.3858799607E-02   -6.3418454817E-02   -6.2980988485E-02   -6.2546383620E-02
   -6.2114623315E-02   -6.1685690735E-02   -6.1259569126E-02   -6.0836241812E-02
   -6.0415692193E-02   -5.9997903748E-02   -5.9582860031E-02   -5.9170544678E-02
   -5.8760941398E-02   -5.8354033979E-02   -5.7949806286E-02   -5.7548242262E-02
   -5.7149325926E-02   -5.6753041373E-02   -5.6359372775E-02   -5.5968304384E-02
   -5.5579820523E-02   -5.5193905595E-02   -5.4810544079E-02   -5.4429720528E-02
   -5.4051419573E-02   -5.3675625920E-02   -5.3302324352E-02   -5.2931499724E-02
   -5.2563136971E-02   -5.2197221099E-02   -5.1833737191E-02   -5.1472670406E-02
   -5.1114005976E-02   -5.0757729208E-02   -5.0403825483E-02   -5.0052280258E-02
   -4.9703079060E-02   -4.9356207495E-02   -4.9011651240E-02   -4.8669396044E-02
   -4.8329427732E-02   -4.7991732201E-02   -4.7656295421E-02   -4.7323103435E-02
   -4.6992142357E-02   -4.6663398376E-02   -4.6336857751E-02   -4.6012506813E-02
   -4.5690331966E-02   -4.5370319685E-02   -4.5052456515E-02   -4.4736729074E-02
   -4.4423124050E-02   -4.4111628202E-02   -4.3802228358E-02   -4.3494911418E-02
   -4.3189664351E-02   -4.2886474197E-02   -4.2585328063E-02   -4.2286213129E-02
   -4.1989116641E-02   -4.1694025915E-02   -4.1400928335E-02   -4.1109811356E-02
   -4.0820662497E-02   -4.0533469347E-02   -4.0248219565E-02   -3.9964900874E-02
   -3.9683501066E-02   -3.9404007999E-02   -3.9126409598E-02   -3.8850693856E-02
   -3.8576848831E-02   -3.8304862646E-02   -3.8034723492E-02   -3.7766419625E-02
   -3.7499939364E-02   -3.7235271096E-02   -3.6972403272E-02   -3.6711324407E-02
   -3.6452023080E-02   -3.6194487936E-02   -3.5938707681E-02   -3.5684671087E-02
   -3.5432366988E-02   -3.5181784281E-02   -3.4932911927E-02   -3.4685738949E-02
   -3.4440254432E-02   -3.4196447523E-02   -3.3954307431E-02   -3.3713823427E-02
   -3.3474984842E-02   -3.3237781070E-02   -3.3002201564E-02   -3.2768235839E-02
   -3.2535873469E-02   -3.2305104089E-02   -3.2075917393E-02   -3.1848303136E-02
   -3.1622251129E-02   -3.1397751246E-02   -3.1174793418E-02   -3.0953367633E-02
   -3.0733463940E-02   -3.0515072444E-02   -3.0298183308E-02   -3.0082786754E-02
   -2.9868873060E-02   -2.9656432560E-02   -2.9445455646E-02   -2.9235932767E-02
   -2.9027854427E-02   -2.8821211186E-02   -2.8615993660E-02   -2.8412192521E-02
   -2.8209798495E-02   -2.8008802364E-02   -2.7809194964E-02   -2.7610967186E-02
   -2.7414109974E-02   -2.7218614327E-02   -2.7024471298E-02   -2.6831671992E-02
   -2.6640207567E-02   -2.6450069236E-02   -2.6261248264E-02   -2.6073735966E-02
   -2.5887523711E-02   -2.5702602921E-02   -2.5518965068E-02   -2.5336601675E-02
   -2.5155504318E-02   -2.4975664622E-02   -2.4797074264E-02   -2.4619724970E-02
   -2.4443608518E-02   -2.4268716733E-02   -2.4095041493E-02   -2.3922574724E-02
   -2.3751308400E-02   -2.3581234545E-02   -2.3412345233E-02   -2.3244632582E-02
   -2.3078088764E-02   -2.2912705995E-02   -2.2748476539E-02   -2.2585392709E-02
   -2.2423446864E-02   -2.2262631411E-02   -2.2102938801E-02   -2.1944361536E-02
   -2.1786892160E-02   -2.1630523265E-02   -2.1475247489E-02   -2.1321057514E-02
   -2.1167946069E-02   -2.1015905928E-02   -2.0864929907E-02   -2.0715010871E-02
   -2.0566141725E-02   -2.0418315422E-02   -2.0271524955E-02   -2.0125763364E-02
   -1.9981023731E-02   -1.9837299181E-02   -1.9694582881E-02   -1.9552868044E-02
   -1.9412147922E-02   -1.9272415811E-02   -1.9133665048E-02   -1.8995889014E-02
   -1.8859081129E-02   -1.8723234855E-02   -1.8588343697E-02   -1.8454401198E-02
   -1.8321400944E-02   -1.8189336561E-02   -1.8058201713E-02   -1.7927990108E-02
   -1.7798695491E-02   -1.7670311647E-02   -1.7542832401E-02   -1.7416251617E-02
   -1.7290563197E-02   -1.7165761083E-02   -1.7041839255E-02   -1.6918791731E-02
   -1.6796612568E-02   -1.6675295860E-02   -1.6554835738E-02   -1.6435226372E-02
   -1.6316461969E-02   -1.6198536771E-02   -1.6081445060E-02   -1.5965181153E-02
   -1.5849739403E-02   -1.5735114199E-02   -1.5621299967E-02   -1.5508291168E-02
   -1.5396082300E-02   -1.5284667895E-02   -1.5174042521E-02   -1.5064200779E-02
   -1.4955137307E-02   -1.4846846777E-02   -1.4739323896E-02   -1.4632563403E-02
   -1.4526560073E-02   -1.4421308715E-02   -1.4316804170E-02   -1.4213041313E-02
   -1.4110015053E-02   -1.4007720331E-02   -1.3906152122E-02   -1.3805305432E-02
   -1.3705175301E-02   -1.3605756801E-02   -1.3507045034E-02   -1.3409035138E-02
   -1.3311722277E-02   -1.3215101653E-02   -1.3119168494E-02   -1.3023918062E-02
   -1.2929345650E-02   -1.2835446579E-02   -1.2742216203E-02   -1.2649649907E-02
   -1.2557743105E-02   -1.2466491241E-02   -1.2375889788E-02   -1.2285934251E-02
   -1.2196620164E-02   -1.2107943087E-02   -1.2019898615E-02   -1.1932482366E-02
   -1.1845689992E-02   -1.1759517169E-02   -1.1673959606E-02   -1.1589013037E-02
   -1.1504673224E-02   -1.1420935961E-02   -1.1337797064E-02   -1.1255252381E-02
   -1.1173297786E-02   -1.1091929181E-02   -1.1011142493E-02   -1.0930933678E-02
   -1.0851298719E-02   -1.0772233624E-02   -1.0693734429E-02   -1.0615797195E-02
   -1.0538418010E-02   -1.0461592989E-02   -1.0385318270E-02   -1.0309590019E-02
   -1.0234404427E-02   -1.0159757711E-02   -1.0085646111E-02   -1.0012065895E-02
   -9.9390133533E-03   -9.8664848026E-03   -9.7944765836E-03   -9.7229850616E-03
   -9.6520066261E-03   -9.5815376908E-03   -9.5115746933E-03   -9.4421140953E-03
   -9.3731523819E-03   -9.3046860619E-03   -9.2367116676E-03   -9.1692257544E-03
   -9.1022249009E-03   -9.0357057086E-03   -8.9696648020E-03   -8.9040988281E-03
   -8.8390044565E-03   -8.7743783794E-03   -8.7102173109E-03   -8.6465179877E-03
   -8.5832771679E-03   -8.5204916321E-03   -8.4581581820E-03   -8.3962736414E-03
   -8.3348348552E-03   -8.2738386898E-03   -8.2132820327E-03   -8.1531617923E-03
   -8.0934748982E-03   -8.0342183005E-03   -7.9753889702E-03   -7.9169838986E-03
   -7.8590000975E-03   -7.8014345989E-03   -7.7442844550E-03   -7.6875467379E-03
   -7.6312185397E-03   -7.5752969721E-03   -7.5197791665E-03   -7.4646622738E-03
   -7.4099434642E-03   -7.3556199274E-03   -7.3016888718E-03   -7.2481475252E-03
   -7.1949931341E-03   -7.1422229638E-03   -7.0898342981E-03   -7.0378244396E-03
   -6.9861907090E-03   -6.9349304456E-03   -6.8840410066E-03   -6.8335197674E-03
   -6.7833641213E-03   -6.7335714794E-03   -6.6841392705E-03   -6.6350649410E-03
   -6.5863459549E-03   -6.5379797933E-03   -6.4899639548E-03   -6.4422959551E-03
   -6.3949733268E-03   -6.3479936194E-03   -6.3013543996E-03   -6.2550532502E-03
   -6.2090877712E-03   -6.1634555785E-03   -6.1181543050E-03   -6.0731815993E-03
   -6.0285351265E-03   -5.9842125678E-03   -5.9402116200E-03   -5.8965299962E-03
   -5.8531654249E-03   -5.8101156505E-03   -5.7673784328E-03   -5.7249515471E-03
   -5.6828327840E-03   -5.6410199494E-03   -5.5995108642E-03   -5.5583033646E-03
   -5.5173953016E-03   -5.4767845409E-03   -5.4364689632E-03   -5.3964464638E-03
   -5.3567149525E-03   -5.3172723535E-03   -5.2781166054E-03   -5.2392456613E-03
   -5.2006574881E-03   -5.1623500671E-03   -5.1243213934E-03   -5.0865694761E-03
   -5.0490923381E-03   -5.0118880159E-03   -4.9749545598E-03   -4.9382900335E-03
   -4.9018925142E-03   -4.8657600926E-03   -4.8298908723E-03   -4.7942829705E-03
   -4.7589345172E-03   -4.7238436556E-03   -4.6890085416E-03   -4.6544273441E-03
   -4.6200982449E-03   -4.5860194380E-03   -4.5521891304E-03   -4.5186055415E-03
   -4.4852669031E-03   -4.4521714592E-03   -4.4193174661E-03   -4.3867031925E-03
   -4.3543269188E-03   -4.3221869379E-03   -4.2902815540E-03   -4.2586090837E-03
   -4.2271678552E-03   -4.1959562081E-03   -4.1649724940E-03   -4.1342150759E-03
   -4.1036823282E-03   -4.0733726367E-03   -4.0432843985E-03   -4.0134160219E-03
   -3.9837659265E-03   -3.9543325428E-03   -3.9251143123E-03   -3.8961096876E-03
   -3.8673171320E-03   -3.8387351196E-03   -3.8103621353E-03   -3.7821966745E-03
   -3.7542372432E-03   -3.7264823581E-03   -3.6989305459E-03   -3.6715803441E-03
   -3.6444303002E-03   -3.6174789720E-03   -3.5907249274E-03   -3.5641667444E-03
   -3.5378030111E-03   -3.5116323254E-03   -3.4856532952E-03   -3.4598645380E-03
   -3.4342646813E-03   -3.4088523620E-03   -3.3836262269E-03   -3.3585849321E-03
   -3.3337271433E-03   -3.3090515356E-03   -3.2845567933E-03   -3.2602416103E-03
   -3.2361046894E-03   -3.2121447428E-03   -3.1883604915E-03   -3.1647506660E-03
   -3.1413140052E-03   -3.1180492574E-03   -3.0949551796E-03   -3.0720305373E-03
   -3.0492741053E-03   -3.0266846665E-03   -3.0042610128E-03   -2.9820019445E-03
   -2.9599062704E-03   -2.9379728077E-03   -2.9162003821E-03   -2.8945878275E-03
   -2.8731339861E-03   -2.8518377084E-03   -2.8306978529E-03   -2.8097132864E-03
   -2.7888828834E-03   -2.7682055267E-03   -2.7476801070E-03   -2.7273055227E-03
   -2.7070806802E-03   -2.6870044935E-03   -2.6670758845E-03   -2.6472937826E-03
   -2.6276571249E-03   -2.6081648561E-03   -2.5888159282E-03   -2.5696093009E-03
   -2.5505439412E-03   -2.5316188233E-03   -2.5128329290E-03   -2.4941852472E-03
   -2.4756747739E-03   -2.4573005124E-03   -2.4390614730E-03   -2.4209566731E-03
   -2.4029851372E-03   -2.3851458965E-03   -2.3674379893E-03   -2.3498604608E-03
   -2.3324123629E-03   -2.3150927543E-03   -2.2979007003E-03   -2.2808352731E-03
   -2.2638955514E-03   -2.2470806205E-03   -2.2303895721E-03   -2.2138215046E-03
   -2.1973755227E-03   -2.1810507377E-03   -2.1648462668E-03   -2.1487612341E-03
   -2.1327947695E-03   -2.1169460094E-03   -2.1012140962E-03   -2.0855981786E-03
   -2.0700974112E-03   -2.0547109548E-03   -2.0394379762E-03   -2.0242776480E-03
   -2.0092291491E-03   -1.9942916638E-03   -1.9794643826E-03   -1.9647465017E-03
   -1.9501372230E-03   -1.9356357542E-03   -1.9212413086E-03   -1.9069531052E-03
   -1.8927703687E-03   -1.8786923291E-03   -1.8647182222E-03   -1.8508472892E-03
   -1.8370787766E-03   -1.8234119365E-03   -1.8098460263E-03   -1.7963803088E-03
   -1.7830140518E-03   -1.7697465289E-03   -1.7565770183E-03   -1.7435048040E-03
   -1.7305291746E-03   -1.7176494242E-03   -1.7048648519E-03   -1.6921747616E-03
   -1.6795784625E-03   -1.6670752687E-03   -1.6546644992E-03   -1.6423454778E-03
   -1.6301175333E-03   -1.6179799994E-03   -1.6059322144E-03   -1.5939735216E-03
   -1.5821032688E-03   -1.5703208086E-03   -1.5586254983E-03   -1.5470166998E-03
   -1.5354937796E-03   -1.5240561088E-03   -1.5127030630E-03   -1.5014340223E-03
   -1.4902483712E-03   -1.4791454989E-03   -1.4681247987E-03   -1.4571856685E-03
   -1.4463275105E-03   -1.4355497310E-03   -1.4248517409E-03   -1.4142329552E-03
   -1.4036927932E-03   -1.3932306783E-03   -1.3828460381E-03   -1.3725383043E-03
   -1.3623069129E-03   -1.3521513037E-03   -1.3420709207E-03   -1.3320652121E-03
   -1.3221336296E-03   -1.3122756294E-03   -1.3024906714E-03   -1.2927782192E-03
   -1.2831377408E-03   -1.2735687075E-03   -1.2640705947E-03   -1.2546428817E-03
   -1.2452850514E-03   -1.2359965904E-03   -1.2267769893E-03   -1.2176257420E-03
   -1.2085423464E-03   -1.1995263039E-03   -1.1905771195E-03   -1.1816943018E-03
   -1.1728773629E-03   -1.1641258187E-03   -1.1554391884E-03   -1.1468169945E-03
   -1.1382587635E-03   -1.1297640247E-03   -1.1213323114E-03   -1.1129631599E-03
   -1.1046561100E-03   -1.0964107048E-03   -1.0882264908E-03   -1.0801030178E-03
   -1.0720398387E-03   -1.0640365098E-03   -1.0560925906E-03   -1.0482076438E-03
   -1.0403812352E-03   -1.0326129339E-03   -1.0249023120E-03   -1.0172489448E-03
   -1.0096524107E-03   -1.0021122911E-03   -9.9462817035E-04   -9.8719963610E-04
   -9.7982627877E-04   -9.7250769186E-04   -9.6524347178E-04   -9.5803321792E-04
   -9.5087653256E-04   -9.4377302089E-04   -9.3672229096E-04   -9.2972395369E-04
   -9.2277762282E-04   -9.1588291492E-04   -9.0903944935E-04   -9.0224684823E-04
   -8.9550473645E-04   -8.8881274163E-04   -8.8217049411E-04   -8.7557762691E-04
   -8.6903377573E-04   -8.6253857895E-04   -8.5609167755E-04   -8.4969271516E-04
   -8.4334133800E-04   -8.3703719486E-04   -8.3077993711E-04   -8.2456921866E-04
   -8.1840469593E-04   -8.1228602787E-04   -8.0621287592E-04   -8.0018490398E-04
   -7.9420177841E-04   -7.8826316801E-04   -7.8236874398E-04   -7.7651817995E-04
   -7.7071115193E-04   -7.6494733827E-04   -7.5922641971E-04   -7.5354807929E-04
   -7.4791200239E-04   -7.4231787668E-04   -7.3676539211E-04   -7.3125424090E-04
   -7.2578411753E-04   -7.2035471871E-04   -7.1496574336E-04   -7.0961689263E-04
   -7.0430786981E-04   -6.9903838040E-04   -6.9380813205E-04   -6.8861683453E-04
   -6.8346419975E-04   -6.7834994174E-04   -6.7327377659E-04   -6.6823542251E-04
   -6.6323459974E-04   -6.5827103059E-04   -6.5334443938E-04   -6.4845455249E-04
   -6.4360109826E-04   -6.3878380706E-04   -6.3400241122E-04   -6.2925664501E-04
   -6.2454624468E-04   -6.1987094840E-04   -6.1523049626E-04   -6.1062463026E-04
   -6.0605309429E-04   -6.0151563411E-04   -5.9701199735E-04   -5.9254193350E-04
   -5.8810519389E-04   -5.8370153164E-04   -5.7933070172E-04   -5.7499246089E-04
   -5.7068656768E-04   -5.6641278242E-04   -5.6217086717E-04   -5.5796058576E-04
   -5.5378170373E-04   -5.4963398836E-04   -5.4551720864E-04   -5.4143113525E-04
   -5.3737554055E-04   -5.3335019858E-04   -5.2935488504E-04   -5.2538937727E-04
   -5.2145345426E-04   -5.1754689661E-04   -5.1366948655E-04   -5.0982100788E-04
   -5.0600124603E-04   -5.0220998798E-04   -4.9844702228E-04   -4.9471213904E-04
   -4.9100512991E-04   -4.8732578808E-04   -4.8367390826E-04   -4.8004928665E-04
   -4.7645172097E-04   -4.7288101042E-04   -4.6933695570E-04   -4.6581935893E-04
   -4.6232802373E-04   -4.5886275514E-04   -4.5542335966E-04   -4.5200964518E-04
   -4.4862142104E-04   -4.4525849796E-04   -4.4192068806E-04   -4.3860780485E-04
   -4.3531966320E-04   -4.3205607936E-04   -4.2881687093E-04   -4.2560185683E-04
   -4.2241085735E-04   -4.1924369409E-04   -4.1610018995E-04   -4.1298016916E-04
   -4.0988345722E-04   -4.0680988094E-04   -4.0375926839E-04   -4.0073144891E-04
   -3.9772625312E-04   -3.9474351286E-04   -3.9178306122E-04   -3.8884473252E-04
   -3.8592836231E-04   -3.8303378735E-04   -3.8016084560E-04   -3.7730937621E-04
   -3.7447921953E-04   -3.7167021709E-04   -3.6888221156E-04   -3.6611504681E-04
   -3.6336856783E-04   -3.6064262078E-04   -3.5793705294E-04   -3.5525171273E-04
   -3.5258644967E-04   -3.4994111441E-04   -3.4731555869E-04   -3.4470963536E-04
   -3.4212319834E-04   -3.3955610264E-04   -3.3700820432E-04   -3.3447936055E-04
   -3.3196942950E-04   -3.2947827042E-04   -3.2700574360E-04   -3.2455171035E-04
   -3.2211603302E-04   -3.1969857495E-04   -3.1729920052E-04   -3.1491777509E-04
   -3.1255416505E-04   -3.1020823773E-04   -3.0787986148E-04   -3.0556890560E-04
   -3.0327524038E-04   -3.0099873703E-04   -2.9873926775E-04   -2.9649670568E-04
   -2.9427092487E-04   -2.9206180034E-04   -2.8986920801E-04   -2.8769302473E-04
   -2.8553312825E-04   -2.8338939722E-04   -2.8126171122E-04   -2.7914995069E-04
   -2.7705399696E-04   -2.7497373225E-04   -2.7290903965E-04   -2.7085980310E-04
   -2.6882590742E-04   -2.6680723826E-04   -2.6480368215E-04   -2.6281512642E-04
   -2.6084145926E-04   -2.5888256969E-04   -2.5693834754E-04   -2.5500868346E-04
   -2.5309346891E-04   -2.5119259615E-04   -2.4930595825E-04   -2.4743344906E-04
   -2.4557496322E-04   -2.4373039617E-04   -2.4189964408E-04   -2.4008260394E-04
   -2.3827917348E-04   -2.3648925117E-04   -2.3471273627E-04   -2.3294952876E-04
   -2.3119952937E-04   -2.2946263957E-04   -2.2773876155E-04   -2.2602779823E-04
   -2.2432965326E-04   -2.2264423100E-04   -2.2097143650E-04   -2.1931117554E-04
   -2.1766335458E-04   -2.1602788079E-04   -2.1440466202E-04   -2.1279360681E-04
   -2.1119462438E-04   -2.0960762459E-04   -2.0803251803E-04   -2.0646921589E-04
   -2.0491763008E-04   -2.0337767310E-04   -2.0184925816E-04   -2.0033229907E-04
   -1.9882671030E-04   -1.9733240696E-04   -1.9584930477E-04   -1.9437732009E-04
   -1.9291636990E-04   -1.9146637179E-04   -1.9002724398E-04   -1.8859890528E-04
   -1.8718127510E-04   -1.8577427346E-04   -1.8437782098E-04   -1.8299183885E-04
   -1.8161624885E-04   -1.8025097337E-04   -1.7889593532E-04   -1.7755105825E-04
   -1.7621626622E-04   -1.7489148388E-04   -1.7357663646E-04   -1.7227164970E-04
   -1.7097644992E-04   -1.6969096400E-04   -1.6841511932E-04   -1.6714884386E-04
   -1.6589206608E-04   -1.6464471500E-04   -1.6340672016E-04   -1.6217801164E-04
   -1.6095852001E-04   -1.5974817638E-04   -1.5854691237E-04   -1.5735466010E-04
   -1.5617135219E-04   -1.5499692177E-04   -1.5383130248E-04   -1.5267442843E-04
   -1.5152623424E-04   -1.5038665500E-04   -1.4925562629E-04   -1.4813308416E-04
   -1.4701896516E-04   -1.4591320630E-04   -1.4481574504E-04   -1.4372651934E-04
   -1.4264546759E-04   -1.4157252867E-04   -1.4050764187E-04   -1.3945074698E-04
   -1.3840178422E-04   -1.3736069423E-04   -1.3632741813E-04   -1.3530189747E-04
   -1.3428407421E-04   -1.3327389076E-04   -1.3227128998E-04   -1.3127621511E-04
   -1.3028860986E-04   -1.2930841831E-04   -1.2833558500E-04   -1.2737005486E-04
   -1.2641177324E-04   -1.2546068590E-04   -1.2451673898E-04   -1.2357987905E-04
   -1.2265005307E-04   -1.2172720838E-04   -1.2081129274E-04   -1.1990225426E-04
   -1.1900004149E-04   -1.1810460331E-04   -1.1721588901E-04   -1.1633384826E-04
   -1.1545843109E-04   -1.1458958792E-04   -1.1372726951E-04   -1.1287142703E-04
   -1.1202201197E-04   -1.1117897621E-04   -1.1034227199E-04   -1.0951185189E-04
   -1.0868766885E-04   -1.0786967616E-04   -1.0705782747E-04   -1.0625207676E-04
   -1.0545237836E-04   -1.0465868693E-04   -1.0387095749E-04   -1.0308914538E-04
   -1.0231320627E-04   -1.0154309617E-04   -1.0077877143E-04   -1.0002018869E-04
   -9.9267304935E-05   -9.8520077479E-05   -9.7778463944E-05   -9.7042422269E-05
   -9.6311910709E-05   -9.5586887829E-05   -9.4867312502E-05   -9.4153143912E-05
   -9.3444341542E-05   -9.2740865183E-05   -9.2042674921E-05   -9.1349731145E-05
   -9.0661994535E-05   -8.9979426067E-05   -8.9301987008E-05   -8.8629638915E-05
   -8.7962343629E-05   -8.7300063280E-05   -8.6642760277E-05   -8.5990397308E-05
   -8.5342937347E-05   -8.4700343641E-05   -8.4062579710E-05   -8.3429609347E-05
   -8.2801396617E-05   -8.2177905852E-05   -8.1559101650E-05   -8.0944948875E-05
   -8.0335412650E-05   -7.9730458364E-05   -7.9130051659E-05   -7.8534158438E-05
   -7.7942744855E-05   -7.7355777320E-05   -7.6773222493E-05   -7.6195047281E-05
   -7.5621218841E-05   -7.5051704574E-05   -7.4486472122E-05   -7.3925489376E-05
   -7.3368724461E-05   -7.2816145745E-05   -7.2267721826E-05   -7.1723421543E-05
   -7.1183213964E-05   -7.0647068389E-05   -7.0114954347E-05   -6.9586841598E-05
   -6.9062700123E-05   -6.8542500131E-05   -6.8026212052E-05   -6.7513806539E-05
   -6.7005254463E-05   -6.6500526911E-05   -6.5999595190E-05   -6.5502430820E-05
   -6.5009005529E-05   -6.4519291264E-05   -6.4033260179E-05   -6.3550884638E-05
   -6.3072137207E-05   -6.2596990662E-05   -6.2125417981E-05   -6.1657392342E-05
   -6.1192887126E-05   -6.0731875914E-05   -6.0274332480E-05   -5.9820230800E-05
   -5.9369545041E-05   -5.8922249563E-05   -5.8478318921E-05   -5.8037727857E-05
   -5.7600451304E-05   -5.7166464381E-05   -5.6735742395E-05   -5.6308260835E-05
   -5.5883995375E-05   -5.5462921873E-05   -5.5045016366E-05   -5.4630255071E-05
   -5.4218614382E-05   -5.3810070869E-05   -5.3404601280E-05   -5.3002182535E-05
   -5.2602791726E-05   -5.2206406119E-05   -5.1813003149E-05   -5.1422560418E-05
   -5.1035055699E-05   -5.0650466930E-05   -5.0268772212E-05   -4.9889949814E-05
   -4.9513978165E-05   -4.9140835855E-05   -4.8770501636E-05   -4.8402954416E-05
   -4.8038173266E-05   -4.7676137412E-05   -4.7316826234E-05   -4.6960219268E-05
   -4.6606296202E-05   -4.6255036876E-05   -4.5906421283E-05   -4.5560429564E-05
   -4.5217042009E-05   -4.4876239055E-05   -4.4538001287E-05   -4.4202309435E-05
   -4.3869144373E-05   -4.3538487119E-05   -4.3210318831E-05   -4.2884620811E-05
   -4.2561374499E-05   -4.2240561475E-05   -4.1922163456E-05   -4.1606162296E-05
   -4.1292539988E-05   -4.0981278658E-05   -4.0672360565E-05   -4.0365768103E-05
   -4.0061483795E-05   -3.9759490298E-05   -3.9459770396E-05   -3.9162307005E-05
   -3.8867083167E-05   -3.8574082052E-05   -3.8283286955E-05   -3.7994681298E-05
   -3.7708248625E-05   -3.7423972606E-05   -3.7141837032E-05   -3.6861825815E-05
   -3.6583922988E-05   -3.6308112704E-05   -3.6034379232E-05   -3.5762706964E-05
   -3.5493080407E-05   -3.5225484183E-05   -3.4959903032E-05   -3.4696321805E-05
   -3.4434725468E-05   -3.4175099101E-05   -3.3917427893E-05   -3.3661697147E-05
   -3.3407892275E-05   -3.3155998798E-05   -3.2906002346E-05   -3.2657888657E-05
   -3.2411643575E-05   -3.2167253051E-05   -3.1924703141E-05   -3.1683980006E-05
   -3.1445069911E-05   -3.1207959223E-05   -3.0972634410E-05   -3.0739082044E-05
   -3.0507288800E-05   -3.0277241448E-05   -3.0048926859E-05   -2.9822332005E-05
   -2.9597443952E-05   -2.9374249865E-05   -2.9152737004E-05   -2.8932892727E-05
   -2.8714704484E-05   -2.8498159822E-05   -2.8283246378E-05   -2.8069951885E-05
   -2.7858264166E-05   -2.7648171136E-05   -2.7439660802E-05   -2.7232721258E-05
   -2.7027340690E-05   -2.6823507372E-05   -2.6621209664E-05   -2.6420436015E-05
   -2.6221174963E-05   -2.6023415129E-05   -2.5827145220E-05   -2.5632354029E-05
   -2.5439030432E-05   -2.5247163388E-05   -2.5056741941E-05   -2.4867755214E-05
   -2.4680192414E-05   -2.4494042828E-05   -2.4309295825E-05   -2.4125940853E-05
   -2.3943967437E-05   -2.3763365183E-05   -2.3584123775E-05   -2.3406232974E-05
   -2.3229682618E-05   -2.3054462621E-05   -2.2880562972E-05   -2.2707973735E-05
   -2.2536685052E-05   -2.2366687136E-05   -2.2197970274E-05   -2.2030524827E-05
   -2.1864341227E-05   -2.1699409978E-05   -2.1535721657E-05   -2.1373266909E-05
   -2.1212036452E-05   -2.1052021071E-05   -2.0893211623E-05   -2.0735599032E-05
   -2.0579174289E-05   -2.0423928456E-05   -2.0269852659E-05   -2.0116938093E-05
   -1.9965176017E-05   -1.9814557757E-05   -1.9665074704E-05   -1.9516718312E-05
   -1.9369480102E-05   -1.9223351656E-05   -1.9078324623E-05   -1.8934390712E-05
   -1.8791541694E-05   -1.8649769404E-05   -1.8509065734E-05   -1.8369422643E-05
   -1.8230832145E-05   -1.8093286318E-05   -1.7956777296E-05   -1.7821297274E-05
   -1.7686838507E-05   -1.7553393305E-05   -1.7420954038E-05   -1.7289513133E-05
   -1.7159063074E-05   -1.7029596400E-05   -1.6901105708E-05   -1.6773583650E-05
   -1.6647022932E-05   -1.6521416315E-05   -1.6396756618E-05   -1.6273036710E-05
   -1.6150249515E-05   -1.6028388010E-05   -1.5907445226E-05   -1.5787414244E-05
   -1.5668288199E-05   -1.5550060277E-05   -1.5432723714E-05   -1.5316271799E-05
   -1.5200697870E-05   -1.5085995315E-05   -1.4972157572E-05   -1.4859178130E-05
   -1.4747050523E-05   -1.4635768338E-05   -1.4525325208E-05   -1.4415714813E-05
   -1.4306930883E-05   -1.4198967191E-05   -1.4091817561E-05   -1.3985475862E-05
   -1.3879936010E-05   -1.3775191965E-05   -1.3671237734E-05   -1.3568067368E-05
   -1.3465674963E-05   -1.3364054660E-05   -1.3263200643E-05   -1.3163107140E-05
   -1.3063768424E-05   -1.2965178808E-05   -1.2867332650E-05   -1.2770224350E-05
   -1.2673848350E-05   -1.2578199134E-05   -1.2483271228E-05   -1.2389059197E-05
   -1.2295557649E-05   -1.2202761232E-05   -1.2110664634E-05   -1.2019262581E-05
   -1.1928549843E-05   -1.1838521226E-05   -1.1749171578E-05   -1.1660495783E-05
   -1.1572488765E-05   -1.1485145485E-05   -1.1398460942E-05   -1.1312430174E-05
   -1.1227048255E-05   -1.1142310297E-05   -1.1058211448E-05   -1.0974746893E-05
   -1.0891911852E-05   -1.0809701583E-05   -1.0728111378E-05   -1.0647136566E-05
   -1.0566772509E-05   -1.0487014606E-05   -1.0407858289E-05   -1.0329299025E-05
   -1.0251332316E-05   -1.0173953694E-05   -1.0097158730E-05   -1.0020943027E-05
   -9.9453022188E-06   -9.8702319736E-06   -9.7957279919E-06   -9.7217860066E-06
   -9.6484017826E-06   -9.5755711169E-06   -9.5032898377E-06   -9.4315538051E-06
   -9.3603589099E-06   -9.2897010742E-06   -9.2195762504E-06   -9.1499804217E-06
   -9.0809096014E-06   -9.0123598328E-06   -8.9443271889E-06   -8.8768077724E-06
   -8.8097977152E-06   -8.7432931784E-06
   </PP_CHI.3>
   <PP_CHI.4
       type="real"
       size="1854"
       columns="4"
       index="4"
       occupation=" 1.000"
       pseudo_energy="   -0.2049789044E+00"
       label="3P"
       l="1" >
    6.1536661183E-12    1.5949396419E-04    6.3756843676E-04    1.4330021684E-03
    2.5437631649E-03    3.9670138182E-03    5.6991180682E-03    7.7356505776E-03
    1.0071407894E-02    1.2700421569E-02    1.5615973200E-02    1.8810611351E-02
    2.2276170310E-02    2.6003790624E-02    2.9983941373E-02    3.4206444096E-02
    3.8660498332E-02    4.3334708683E-02    4.8217113344E-02    5.3295214003E-02
    5.8556007056E-02    6.3986016020E-02    6.9571325085E-02    7.5297613696E-02
    8.1150192078E-02    8.7114037604E-02    9.3173831917E-02    9.9313998688E-02
    1.0551874193E-01    1.1177208473E-01    1.1805790837E-01    1.2435999159E-01
    1.3066205007E-01    1.3694777588E-01    1.4320087682E-01    1.4940511566E-01
    1.5554434896E-01    1.6160256558E-01    1.6756392468E-01    1.7341279305E-01
    1.7913378182E-01    1.8471178229E-01    1.9013200097E-01    1.9537999354E-01
    2.0044169777E-01    2.0530346530E-01    2.0995209218E-01    2.1437484806E-01
    2.1855950404E-01    2.2249435901E-01    2.2616826451E-01    2.2957064800E-01
    2.3269153445E-01    2.3552156628E-01    2.3805202159E-01    2.4027483054E-01
    2.4218258996E-01    2.4376857617E-01    2.4502675584E-01    2.4595179505E-01
    2.4653906642E-01    2.4678465431E-01    2.4668535822E-01    2.4623869418E-01
    2.4544289430E-01    2.4429690446E-01    2.4280038013E-01    2.4095368040E-01
    2.3875786014E-01    2.3621466049E-01    2.3332649760E-01    2.3009644970E-01
    2.2652824255E-01    2.2262623338E-01    2.1839539327E-01    2.1384128814E-01
    2.0897005836E-01    2.0378839705E-01    1.9830352727E-01    1.9252317788E-01
    1.8645555858E-01    1.8010933376E-01    1.7349359566E-01    1.6661783661E-01
    1.5949192060E-01    1.5212605428E-01    1.4453075744E-01    1.3671683298E-01
    1.2869533668E-01    1.2047754665E-01    1.1207493268E-01    1.0349912553E-01
    9.4761886298E-02    8.5875075887E-02    7.6850624736E-02    6.7700502859E-02
    5.8436690299E-02    4.9071148067E-02    3.9615789658E-02    3.0082453221E-02
    2.0482874455E-02    1.0828660307E-02    1.1312635410E-03   -8.5980417611E-03
   -1.8348183700E-02   -2.8108315008E-02   -3.7867834390E-02   -4.7616406718E-02
   -5.7343982016E-02   -6.7040813227E-02   -7.6697472690E-02   -8.6304867336E-02
   -9.5854252550E-02   -1.0533724470E-01   -1.1474583229E-01   -1.2407238578E-01
   -1.3330966601E-01   -1.4245083126E-01   -1.5148944295E-01   -1.6041946998E-01
   -1.6923529175E-01   -1.7793169985E-01   -1.8650389840E-01   -1.9494750325E-01
   -2.0325853982E-01   -2.1143343980E-01   -2.1946903664E-01   -2.2736256005E-01
   -2.3511162924E-01   -2.4271424531E-01   -2.5016878256E-01   -2.5747397894E-01
   -2.6462892564E-01   -2.7163305585E-01   -2.7848613283E-01   -2.8518823725E-01
   -2.9173975398E-01   -2.9814135828E-01   -3.0439400155E-01   -3.1049889664E-01
   -3.1645750283E-01   -3.2227151047E-01   -3.2794282550E-01   -3.3347355372E-01
   -3.3886598502E-01   -3.4412257755E-01   -3.4924594199E-01   -3.5423882579E-01
   -3.5910409766E-01   -3.6384473223E-01   -3.6846379496E-01   -3.7296442735E-01
   -3.7734983250E-01   -3.8162326113E-01   -3.8578799793E-01   -3.8984734847E-01
   -3.9380462661E-01   -3.9766314244E-01   -4.0142619080E-01   -4.0509704043E-01
   -4.0867892368E-01   -4.1217502694E-01   -4.1558848167E-01   -4.1892235615E-01
   -4.2217964783E-01   -4.2536327650E-01   -4.2847607799E-01   -4.3152079867E-01
   -4.3450009058E-01   -4.3741650725E-01   -4.4027250019E-01   -4.4307041603E-01
   -4.4581249425E-01   -4.4850086561E-01   -4.5113755113E-01   -4.5372446161E-01
   -4.5626339780E-01   -4.5875605098E-01   -4.6120400411E-01   -4.6360873343E-01
   -4.6597161050E-01   -4.6829390457E-01   -4.7057678548E-01   -4.7282132673E-01
   -4.7502850894E-01   -4.7719922360E-01   -4.7933427696E-01   -4.8143439424E-01
   -4.8350022391E-01   -4.8553234218E-01   -4.8753125751E-01   -4.8949741529E-01
   -4.9143120246E-01   -4.9333295221E-01   -4.9520294865E-01   -4.9704143139E-01
   -4.9884860010E-01   -5.0062461897E-01   -5.0236962099E-01   -5.0408371220E-01
   -5.0576697569E-01   -5.0741947545E-01   -5.0904126008E-01   -5.1063236620E-01
   -5.1219282178E-01   -5.1372264911E-01   -5.1522186765E-01   -5.1669049658E-01
   -5.1812855715E-01   -5.1953607476E-01   -5.2091308083E-01   -5.2225961443E-01
   -5.2357572366E-01   -5.2486146681E-01   -5.2611691333E-01   -5.2734214452E-01
   -5.2853725411E-01   -5.2970234857E-01   -5.3083754725E-01   -5.3194298244E-01
   -5.3301879912E-01   -5.3406515473E-01   -5.3508221871E-01   -5.3607017198E-01
   -5.3702920630E-01   -5.3795952353E-01   -5.3886133492E-01   -5.3973486022E-01
   -5.4058032687E-01   -5.4139796908E-01   -5.4218802697E-01   -5.4295074568E-01
   -5.4368637451E-01   -5.4439516611E-01   -5.4507737569E-01   -5.4573326025E-01
   -5.4636307798E-01   -5.4696708759E-01   -5.4754554782E-01   -5.4809871702E-01
   -5.4862685270E-01   -5.4913021134E-01   -5.4960904822E-01   -5.5006361728E-01
   -5.5049417104E-01   -5.5090096060E-01   -5.5128423574E-01   -5.5164424476E-01
   -5.5198123455E-01   -5.5229545051E-01   -5.5258713663E-01   -5.5285653539E-01
   -5.5310388788E-01   -5.5332943369E-01   -5.5353341091E-01   -5.5371605611E-01
   -5.5387760432E-01   -5.5401828906E-01   -5.5413834233E-01   -5.5423799460E-01
   -5.5431747478E-01   -5.5437701023E-01   -5.5441682676E-01   -5.5443714864E-01
   -5.5443819853E-01   -5.5442019758E-01   -5.5438336532E-01   -5.5432791974E-01
   -5.5425407724E-01   -5.5416205264E-01   -5.5405205921E-01   -5.5392430860E-01
   -5.5377901092E-01   -5.5361637468E-01   -5.5343660681E-01   -5.5323991267E-01
   -5.5302649604E-01   -5.5279655913E-01   -5.5255030256E-01   -5.5228792541E-01
   -5.5200962515E-01   -5.5171559773E-01   -5.5140603749E-01   -5.5108113724E-01
   -5.5074108824E-01   -5.5038608016E-01   -5.5001630116E-01   -5.4963193784E-01
   -5.4923317526E-01   -5.4882019695E-01   -5.4839318490E-01   -5.4795231959E-01
   -5.4749777997E-01   -5.4702974349E-01   -5.4654838607E-01   -5.4605388214E-01
   -5.4554640466E-01   -5.4502612505E-01   -5.4449321329E-01   -5.4394783787E-01
   -5.4339016580E-01   -5.4282036264E-01   -5.4223859250E-01   -5.4164501803E-01
   -5.4103980043E-01   -5.4042309950E-01   -5.3979507358E-01   -5.3915587961E-01
   -5.3850567311E-01   -5.3784460821E-01   -5.3717283762E-01   -5.3649051270E-01
   -5.3579778340E-01   -5.3509479831E-01   -5.3438170465E-01   -5.3365864829E-01
   -5.3292577377E-01   -5.3218322426E-01   -5.3143114163E-01   -5.3066966640E-01
   -5.2989893780E-01   -5.2911909375E-01   -5.2833027086E-01   -5.2753260447E-01
   -5.2672622863E-01   -5.2591127614E-01   -5.2508787850E-01   -5.2425616599E-01
   -5.2341626763E-01   -5.2256831121E-01   -5.2171242330E-01   -5.2084872922E-01
   -5.1997735313E-01   -5.1909841793E-01   -5.1821204539E-01   -5.1731835604E-01
   -5.1641746926E-01   -5.1550950328E-01   -5.1459457514E-01   -5.1367280074E-01
   -5.1274429485E-01   -5.1180917111E-01   -5.1086754201E-01   -5.0991951896E-01
   -5.0896521223E-01   -5.0800473101E-01   -5.0703818341E-01   -5.0606567643E-01
   -5.0508731603E-01   -5.0410320708E-01   -5.0311345340E-01   -5.0211815778E-01
   -5.0111742194E-01   -5.0011134660E-01   -4.9910003144E-01   -4.9808357513E-01
   -4.9706207532E-01   -4.9603562869E-01   -4.9500433091E-01   -4.9396827667E-01
   -4.9292755968E-01   -4.9188227271E-01   -4.9083250755E-01   -4.8977835504E-01
   -4.8871990508E-01   -4.8765724665E-01   -4.8659046778E-01   -4.8551965560E-01
   -4.8444489632E-01   -4.8336627525E-01   -4.8228387680E-01   -4.8119778450E-01
   -4.8010808098E-01   -4.7901484803E-01   -4.7791816655E-01   -4.7681811659E-01
   -4.7571477733E-01   -4.7460822715E-01   -4.7349854354E-01   -4.7238580320E-01
   -4.7127008200E-01   -4.7015145498E-01   -4.6902999638E-01   -4.6790577966E-01
   -4.6677887746E-01   -4.6564936164E-01   -4.6451730328E-01   -4.6338277269E-01
   -4.6224583941E-01   -4.6110657223E-01   -4.5996503917E-01   -4.5882130753E-01
   -4.5767544384E-01   -4.5652751391E-01   -4.5537758283E-01   -4.5422571497E-01
   -4.5307197398E-01   -4.5191642279E-01   -4.5075912366E-01   -4.4960013813E-01
   -4.4843952706E-01   -4.4727735063E-01   -4.4611366833E-01   -4.4494853901E-01
   -4.4378202083E-01   -4.4261417129E-01   -4.4144504725E-01   -4.4027470493E-01
   -4.3910319990E-01   -4.3793058709E-01   -4.3675692081E-01   -4.3558225474E-01
   -4.3440664195E-01   -4.3323013490E-01   -4.3205278543E-01   -4.3087464480E-01
   -4.2969576365E-01   -4.2851619206E-01   -4.2733597950E-01   -4.2615517486E-01
   -4.2497382649E-01   -4.2379198214E-01   -4.2260968900E-01   -4.2142699371E-01
   -4.2024394237E-01   -4.1906058050E-01   -4.1787695310E-01   -4.1669310463E-01
   -4.1550907901E-01   -4.1432491965E-01   -4.1314066942E-01   -4.1195637068E-01
   -4.1077206526E-01   -4.0958779452E-01   -4.0840359928E-01   -4.0721951987E-01
   -4.0603559614E-01   -4.0485186744E-01   -4.0366837264E-01   -4.0248515011E-01
   -4.0130223778E-01   -4.0011967308E-01   -3.9893749298E-01   -3.9775573399E-01
   -3.9657443217E-01   -3.9539362311E-01   -3.9421334196E-01   -3.9303362343E-01
   -3.9185450177E-01   -3.9067601081E-01   -3.8949818395E-01   -3.8832105415E-01
   -3.8714465395E-01   -3.8596901547E-01   -3.8479417041E-01   -3.8362015006E-01
   -3.8244698530E-01   -3.8127470662E-01   -3.8010334408E-01   -3.7893292738E-01
   -3.7776348578E-01   -3.7659504820E-01   -3.7542764314E-01   -3.7426129873E-01
   -3.7309604273E-01   -3.7193190251E-01   -3.7076890507E-01   -3.6960707706E-01
   -3.6844644475E-01   -3.6728703406E-01   -3.6612887053E-01   -3.6497197938E-01
   -3.6381638546E-01   -3.6266211328E-01   -3.6150918700E-01   -3.6035763044E-01
   -3.5920746710E-01   -3.5805872012E-01   -3.5691141234E-01   -3.5576556625E-01
   -3.5462120403E-01   -3.5347834752E-01   -3.5233701827E-01   -3.5119723750E-01
   -3.5005902612E-01   -3.4892240473E-01   -3.4778739364E-01   -3.4665401283E-01
   -3.4552228200E-01   -3.4439222057E-01   -3.4326384762E-01   -3.4213718199E-01
   -3.4101224221E-01   -3.3988904651E-01   -3.3876761287E-01   -3.3764795896E-01
   -3.3653010221E-01   -3.3541405974E-01   -3.3429984842E-01   -3.3318748485E-01
   -3.3207698537E-01   -3.3096836603E-01   -3.2986164265E-01   -3.2875683079E-01
   -3.2765394574E-01   -3.2655300255E-01   -3.2545401601E-01   -3.2435700068E-01
   -3.2326197085E-01   -3.2216894059E-01   -3.2107792373E-01   -3.1998893384E-01
   -3.1890198428E-01   -3.1781708817E-01   -3.1673425839E-01   -3.1565350760E-01
   -3.1457484825E-01   -3.1349829253E-01   -3.1242385245E-01   -3.1135153978E-01
   -3.1028136606E-01   -3.0921334265E-01   -3.0814748067E-01   -3.0708379104E-01
   -3.0602228448E-01   -3.0496297149E-01   -3.0390586238E-01   -3.0285096726E-01
   -3.0179829601E-01   -3.0074785836E-01   -2.9969966381E-01   -2.9865372169E-01
   -2.9761004112E-01   -2.9656863104E-01   -2.9552950020E-01   -2.9449265717E-01
   -2.9345811034E-01   -2.9242586791E-01   -2.9139593790E-01   -2.9036832817E-01
   -2.8934304637E-01   -2.8832010002E-01   -2.8729949643E-01   -2.8628124277E-01
   -2.8526534601E-01   -2.8425181300E-01   -2.8324065037E-01   -2.8223186463E-01
   -2.8122546211E-01   -2.8022144899E-01   -2.7921983128E-01   -2.7822061485E-01
   -2.7722380540E-01   -2.7622940848E-01   -2.7523742951E-01   -2.7424787373E-01
   -2.7326074626E-01   -2.7227605205E-01   -2.7129379592E-01   -2.7031398254E-01
   -2.6933661646E-01   -2.6836170205E-01   -2.6738924359E-01   -2.6641924517E-01
   -2.6545171080E-01   -2.6448664432E-01   -2.6352404944E-01   -2.6256392976E-01
   -2.6160628872E-01   -2.6065112967E-01   -2.5969845581E-01   -2.5874827021E-01
   -2.5780057583E-01   -2.5685537550E-01   -2.5591267194E-01   -2.5497246774E-01
   -2.5403476537E-01   -2.5309956720E-01   -2.5216687546E-01   -2.5123669229E-01
   -2.5030901970E-01   -2.4938385960E-01   -2.4846121378E-01   -2.4754108393E-01
   -2.4662347163E-01   -2.4570837834E-01   -2.4479580545E-01   -2.4388575420E-01
   -2.4297822576E-01   -2.4207322119E-01   -2.4117074145E-01   -2.4027078740E-01
   -2.3937335979E-01   -2.3847845930E-01   -2.3758608648E-01   -2.3669624183E-01
   -2.3580892571E-01   -2.3492413842E-01   -2.3404188015E-01   -2.3316215101E-01
   -2.3228495102E-01   -2.3141028011E-01   -2.3053813813E-01   -2.2966852483E-01
   -2.2880143988E-01   -2.2793688288E-01   -2.2707485333E-01   -2.2621535066E-01
   -2.2535837420E-01   -2.2450392323E-01   -2.2365199694E-01   -2.2280259442E-01
   -2.2195571471E-01   -2.2111135677E-01   -2.2026951947E-01   -2.1943020164E-01
   -2.1859340198E-01   -2.1775911918E-01   -2.1692735182E-01   -2.1609809842E-01
   -2.1527135743E-01   -2.1444712724E-01   -2.1362540616E-01   -2.1280619244E-01
   -2.1198948425E-01   -2.1117527973E-01   -2.1036357692E-01   -2.0955437382E-01
   -2.0874766834E-01   -2.0794345836E-01   -2.0714174169E-01   -2.0634251606E-01
   -2.0554577917E-01   -2.0475152865E-01   -2.0395976205E-01   -2.0317047691E-01
   -2.0238367066E-01   -2.0159934073E-01   -2.0081748444E-01   -2.0003809911E-01
   -1.9926118196E-01   -1.9848673019E-01   -1.9771474094E-01   -1.9694521128E-01
   -1.9617813826E-01   -1.9541351887E-01   -1.9465135003E-01   -1.9389162864E-01
   -1.9313435155E-01   -1.9237951554E-01   -1.9162711737E-01   -1.9087715375E-01
   -1.9012962132E-01   -1.8938451671E-01   -1.8864183649E-01   -1.8790157719E-01
   -1.8716373529E-01   -1.8642830724E-01   -1.8569528946E-01   -1.8496467829E-01
   -1.8423647007E-01   -1.8351066108E-01   -1.8278724757E-01   -1.8206622575E-01
   -1.8134759180E-01   -1.8063134184E-01   -1.7991747198E-01   -1.7920597829E-01
   -1.7849685679E-01   -1.7779010347E-01   -1.7708571431E-01   -1.7638368522E-01
   -1.7568401210E-01   -1.7498669082E-01   -1.7429171720E-01   -1.7359908705E-01
   -1.7290879614E-01   -1.7222084020E-01   -1.7153521494E-01   -1.7085191605E-01
   -1.7017093918E-01   -1.6949227994E-01   -1.6881593395E-01   -1.6814189676E-01
   -1.6747016391E-01   -1.6680073094E-01   -1.6613359331E-01   -1.6546874651E-01
   -1.6480618597E-01   -1.6414590711E-01   -1.6348790532E-01   -1.6283217596E-01
   -1.6217871439E-01   -1.6152751593E-01   -1.6087857588E-01   -1.6023188951E-01
   -1.5958745209E-01   -1.5894525886E-01   -1.5830530503E-01   -1.5766758579E-01
   -1.5703209633E-01   -1.5639883180E-01   -1.5576778735E-01   -1.5513895809E-01
   -1.5451233912E-01   -1.5388792554E-01   -1.5326571240E-01   -1.5264569477E-01
   -1.5202786767E-01   -1.5141222613E-01   -1.5079876514E-01   -1.5018747969E-01
   -1.4957836476E-01   -1.4897141531E-01   -1.4836662627E-01   -1.4776399257E-01
   -1.4716350914E-01   -1.4656517087E-01   -1.4596897266E-01   -1.4537490937E-01
   -1.4478297587E-01   -1.4419316703E-01   -1.4360547766E-01   -1.4301990262E-01
   -1.4243643671E-01   -1.4185507474E-01   -1.4127581151E-01   -1.4069864180E-01
   -1.4012356040E-01   -1.3955056207E-01   -1.3897964156E-01   -1.3841079364E-01
   -1.3784401304E-01   -1.3727929449E-01   -1.3671663272E-01   -1.3615602244E-01
   -1.3559745836E-01   -1.3504093519E-01   -1.3448644762E-01   -1.3393399034E-01
   -1.3338355803E-01   -1.3283514537E-01   -1.3228874702E-01   -1.3174435766E-01
   -1.3120197194E-01   -1.3066158451E-01   -1.3012319002E-01   -1.2958678312E-01
   -1.2905235844E-01   -1.2851991063E-01   -1.2798943431E-01   -1.2746092411E-01
   -1.2693437466E-01   -1.2640978058E-01   -1.2588713648E-01   -1.2536643698E-01
   -1.2484767670E-01   -1.2433085024E-01   -1.2381595221E-01   -1.2330297722E-01
   -1.2279191987E-01   -1.2228277477E-01   -1.2177553652E-01   -1.2127019972E-01
   -1.2076675896E-01   -1.2026520885E-01   -1.1976554399E-01   -1.1926775897E-01
   -1.1877184839E-01   -1.1827780686E-01   -1.1778562896E-01   -1.1729530930E-01
   -1.1680684247E-01   -1.1632022309E-01   -1.1583544574E-01   -1.1535250503E-01
   -1.1487139556E-01   -1.1439211194E-01   -1.1391464878E-01   -1.1343900068E-01
   -1.1296516225E-01   -1.1249312811E-01   -1.1202289288E-01   -1.1155445116E-01
   -1.1108779758E-01   -1.1062292676E-01   -1.1015983333E-01   -1.0969851192E-01
   -1.0923895715E-01   -1.0878116367E-01   -1.0832512611E-01   -1.0787083912E-01
   -1.0741829734E-01   -1.0696749542E-01   -1.0651842801E-01   -1.0607108978E-01
   -1.0562547539E-01   -1.0518157951E-01   -1.0473939680E-01   -1.0429892195E-01
   -1.0386014963E-01   -1.0342307453E-01   -1.0298769135E-01   -1.0255399478E-01
   -1.0212197953E-01   -1.0169164029E-01   -1.0126297180E-01   -1.0083596875E-01
   -1.0041062589E-01   -9.9986937938E-02   -9.9564899632E-02   -9.9144505718E-02
   -9.8725750945E-02   -9.8308630067E-02   -9.7893137849E-02   -9.7479269057E-02
   -9.7067018469E-02   -9.6656380867E-02   -9.6247351040E-02   -9.5839923784E-02
   -9.5434093902E-02   -9.5029856205E-02   -9.4627205512E-02   -9.4226136647E-02
   -9.3826644442E-02   -9.3428723738E-02   -9.3032369383E-02   -9.2637576232E-02
   -9.2244339149E-02   -9.1852653005E-02   -9.1462512679E-02   -9.1073913057E-02
   -9.0686849037E-02   -9.0301315520E-02   -8.9917307420E-02   -8.9534819655E-02
   -8.9153847156E-02   -8.8774384859E-02   -8.8396427710E-02   -8.8019970663E-02
   -8.7645008681E-02   -8.7271536737E-02   -8.6899549811E-02   -8.6529042893E-02
   -8.6160010982E-02   -8.5792449085E-02   -8.5426352221E-02   -8.5061715414E-02
   -8.4698533700E-02   -8.4336802124E-02   -8.3976515740E-02   -8.3617669611E-02
   -8.3260258812E-02   -8.2904278423E-02   -8.2549723538E-02   -8.2196589258E-02
   -8.1844870695E-02   -8.1494562970E-02   -8.1145661215E-02   -8.0798160570E-02
   -8.0452056186E-02   -8.0107343224E-02   -7.9764016855E-02   -7.9422072261E-02
   -7.9081504631E-02   -7.8742309168E-02   -7.8404481083E-02   -7.8068015597E-02
   -7.7732907943E-02   -7.7399153362E-02   -7.7066747108E-02   -7.6735684443E-02
   -7.6405960641E-02   -7.6077570987E-02   -7.5750510773E-02   -7.5424775306E-02
   -7.5100359902E-02   -7.4777259885E-02   -7.4455470595E-02   -7.4134987377E-02
   -7.3815805590E-02   -7.3497920605E-02   -7.3181327799E-02   -7.2866022565E-02
   -7.2552000304E-02   -7.2239256427E-02   -7.1927786360E-02   -7.1617585536E-02
   -7.1308649399E-02   -7.1000973408E-02   -7.0694553028E-02   -7.0389383738E-02
   -7.0085461028E-02   -6.9782780398E-02   -6.9481337359E-02   -6.9181127435E-02
   -6.8882146159E-02   -6.8584389076E-02   -6.8287851743E-02   -6.7992529726E-02
   -6.7698418606E-02   -6.7405513971E-02   -6.7113811422E-02   -6.6823306573E-02
   -6.6533995047E-02   -6.6245872479E-02   -6.5958934516E-02   -6.5673176815E-02
   -6.5388595046E-02   -6.5105184889E-02   -6.4822942036E-02   -6.4541862190E-02
   -6.4261941066E-02   -6.3983174391E-02   -6.3705557901E-02   -6.3429087347E-02
   -6.3153758487E-02   -6.2879567095E-02   -6.2606508954E-02   -6.2334579858E-02
   -6.2063775615E-02   -6.1794092041E-02   -6.1525524967E-02   -6.1258070234E-02
   -6.0991723693E-02   -6.0726481208E-02   -6.0462338656E-02   -6.0199291923E-02
   -5.9937336908E-02   -5.9676469521E-02   -5.9416685683E-02   -5.9157981328E-02
   -5.8900352400E-02   -5.8643794856E-02   -5.8388304663E-02   -5.8133877801E-02
   -5.7880510261E-02   -5.7628198045E-02   -5.7376937168E-02   -5.7126723654E-02
   -5.6877553541E-02   -5.6629422877E-02   -5.6382327724E-02   -5.6136264152E-02
   -5.5891228245E-02   -5.5647216098E-02   -5.5404223817E-02   -5.5162247520E-02
   -5.4921283336E-02   -5.4681327407E-02   -5.4442375885E-02   -5.4204424934E-02
   -5.3967470729E-02   -5.3731509458E-02   -5.3496537319E-02   -5.3262550522E-02
   -5.3029545288E-02   -5.2797517850E-02   -5.2566464454E-02   -5.2336381354E-02
   -5.2107264818E-02   -5.1879111125E-02   -5.1651916566E-02   -5.1425677441E-02
   -5.1200390064E-02   -5.0976050759E-02   -5.0752655862E-02   -5.0530201721E-02
   -5.0308684695E-02   -5.0088101152E-02   -4.9868447475E-02   -4.9649720056E-02
   -4.9431915300E-02   -4.9215029621E-02   -4.8999059447E-02   -4.8784001215E-02
   -4.8569851376E-02   -4.8356606388E-02   -4.8144262725E-02   -4.7932816869E-02
   -4.7722265315E-02   -4.7512604568E-02   -4.7303831145E-02   -4.7095941574E-02
   -4.6888932394E-02   -4.6682800156E-02   -4.6477541420E-02   -4.6273152759E-02
   -4.6069630758E-02   -4.5866972011E-02   -4.5665173124E-02   -4.5464230713E-02
   -4.5264141408E-02   -4.5064901846E-02   -4.4866508679E-02   -4.4668958567E-02
   -4.4472248183E-02   -4.4276374209E-02   -4.4081333340E-02   -4.3887122281E-02
   -4.3693737747E-02   -4.3501176466E-02   -4.3309435175E-02   -4.3118510623E-02
   -4.2928399569E-02   -4.2739098784E-02   -4.2550605050E-02   -4.2362915156E-02
   -4.2176025908E-02   -4.1989934117E-02   -4.1804636609E-02   -4.1620130218E-02
   -4.1436411791E-02   -4.1253478182E-02   -4.1071326260E-02   -4.0889952901E-02
   -4.0709354996E-02   -4.0529529441E-02   -4.0350473147E-02   -4.0172183034E-02
   -3.9994656033E-02   -3.9817889084E-02   -3.9641879139E-02   -3.9466623161E-02
   -3.9292118122E-02   -3.9118361005E-02   -3.8945348804E-02   -3.8773078523E-02
   -3.8601547175E-02   -3.8430751785E-02   -3.8260689389E-02   -3.8091357032E-02
   -3.7922751769E-02   -3.7754870666E-02   -3.7587710800E-02   -3.7421269256E-02
   -3.7255543131E-02   -3.7090529533E-02   -3.6926225577E-02   -3.6762628391E-02
   -3.6599735112E-02   -3.6437542888E-02   -3.6276048876E-02   -3.6115250242E-02
   -3.5955144166E-02   -3.5795727833E-02   -3.5636998442E-02   -3.5478953200E-02
   -3.5321589324E-02   -3.5164904041E-02   -3.5008894589E-02   -3.4853558215E-02
   -3.4698892175E-02   -3.4544893736E-02   -3.4391560175E-02   -3.4238888778E-02
   -3.4086876841E-02   -3.3935521669E-02   -3.3784820579E-02   -3.3634770895E-02
   -3.3485369952E-02   -3.3336615094E-02   -3.3188503676E-02   -3.3041033061E-02
   -3.2894200623E-02   -3.2748003743E-02   -3.2602439815E-02   -3.2457506240E-02
   -3.2313200429E-02   -3.2169519803E-02   -3.2026461792E-02   -3.1884023836E-02
   -3.1742203382E-02   -3.1600997891E-02   -3.1460404828E-02   -3.1320421671E-02
   -3.1181045906E-02   -3.1042275028E-02   -3.0904106542E-02   -3.0766537961E-02
   -3.0629566809E-02   -3.0493190617E-02   -3.0357406927E-02   -3.0222213289E-02
   -3.0087607262E-02   -2.9953586416E-02   -2.9820148327E-02   -2.9687290581E-02
   -2.9555010775E-02   -2.9423306513E-02   -2.9292175407E-02   -2.9161615081E-02
   -2.9031623166E-02   -2.8902197301E-02   -2.8773335135E-02   -2.8645034326E-02
   -2.8517292541E-02   -2.8390107453E-02   -2.8263476749E-02   -2.8137398119E-02
   -2.8011869266E-02   -2.7886887899E-02   -2.7762451737E-02   -2.7638558507E-02
   -2.7515205945E-02   -2.7392391795E-02   -2.7270113810E-02   -2.7148369751E-02
   -2.7027157389E-02   -2.6906474502E-02   -2.6786318876E-02   -2.6666688306E-02
   -2.6547580597E-02   -2.6428993561E-02   -2.6310925016E-02   -2.6193372793E-02
   -2.6076334727E-02   -2.5959808665E-02   -2.5843792459E-02   -2.5728283970E-02
   -2.5613281070E-02   -2.5498781635E-02   -2.5384783552E-02   -2.5271284716E-02
   -2.5158283027E-02   -2.5045776397E-02   -2.4933762744E-02   -2.4822239994E-02
   -2.4711206083E-02   -2.4600658951E-02   -2.4490596550E-02   -2.4381016838E-02
   -2.4271917780E-02   -2.4163297351E-02   -2.4055153534E-02   -2.3947484316E-02
   -2.3840287696E-02   -2.3733561680E-02   -2.3627304279E-02   -2.3521513515E-02
   -2.3416187416E-02   -2.3311324018E-02   -2.3206921366E-02   -2.3102977509E-02
   -2.2999490508E-02   -2.2896458428E-02   -2.2793879344E-02   -2.2691751338E-02
   -2.2590072498E-02   -2.2488840922E-02   -2.2388054712E-02   -2.2287711982E-02
   -2.2187810849E-02   -2.2088349439E-02   -2.1989325888E-02   -2.1890738335E-02
   -2.1792584928E-02   -2.1694863824E-02   -2.1597573185E-02   -2.1500711182E-02
   -2.1404275991E-02   -2.1308265798E-02   -2.1212678793E-02   -2.1117513176E-02
   -2.1022767152E-02   -2.0928438935E-02   -2.0834526745E-02   -2.0741028809E-02
   -2.0647943361E-02   -2.0555268642E-02   -2.0463002901E-02   -2.0371144393E-02
   -2.0279691380E-02   -2.0188642130E-02   -2.0097994920E-02   -2.0007748033E-02
   -1.9917899758E-02   -1.9828448392E-02   -1.9739392237E-02   -1.9650729604E-02
   -1.9562458809E-02   -1.9474578177E-02   -1.9387086037E-02   -1.9299980726E-02
   -1.9213260588E-02   -1.9126923972E-02   -1.9040969236E-02   -1.8955394743E-02
   -1.8870198863E-02   -1.8785379972E-02   -1.8700936454E-02   -1.8616866698E-02
   -1.8533169099E-02   -1.8449842061E-02   -1.8366883993E-02   -1.8284293309E-02
   -1.8202068431E-02   -1.8120207788E-02   -1.8038709813E-02   -1.7957572948E-02
   -1.7876795639E-02   -1.7796376340E-02   -1.7716313511E-02   -1.7636605617E-02
   -1.7557251130E-02   -1.7478248529E-02   -1.7399596297E-02   -1.7321292926E-02
   -1.7243336912E-02   -1.7165726757E-02   -1.7088460971E-02   -1.7011538069E-02
   -1.6934956571E-02   -1.6858715004E-02   -1.6782811902E-02   -1.6707245803E-02
   -1.6632015253E-02   -1.6557118801E-02   -1.6482555005E-02   -1.6408322428E-02
   -1.6334419637E-02   -1.6260845207E-02   -1.6187597719E-02   -1.6114675759E-02
   -1.6042077917E-02   -1.5969802792E-02   -1.5897848987E-02   -1.5826215111E-02
   -1.5754899779E-02   -1.5683901611E-02   -1.5613219232E-02   -1.5542851276E-02
   -1.5472796378E-02   -1.5403053183E-02   -1.5333620337E-02   -1.5264496497E-02
   -1.5195680320E-02   -1.5127170472E-02   -1.5058965625E-02   -1.4991064453E-02
   -1.4923465638E-02   -1.4856167867E-02   -1.4789169834E-02   -1.4722470234E-02
   -1.4656067773E-02   -1.4589961157E-02   -1.4524149102E-02   -1.4458630326E-02
   -1.4393403553E-02   -1.4328467514E-02   -1.4263820944E-02   -1.4199462582E-02
   -1.4135391174E-02   -1.4071605471E-02   -1.4008104229E-02   -1.3944886208E-02
   -1.3881950176E-02   -1.3819294903E-02   -1.3756919165E-02   -1.3694821745E-02
   -1.3633001428E-02   -1.3571457006E-02   -1.3510187276E-02   -1.3449191040E-02
   -1.3388467104E-02   -1.3328014279E-02   -1.3267831383E-02   -1.3207917237E-02
   -1.3148270667E-02   -1.3088890504E-02   -1.3029775585E-02   -1.2970924751E-02
   -1.2912336848E-02   -1.2854010725E-02   -1.2795945240E-02   -1.2738139252E-02
   -1.2680591626E-02   -1.2623301232E-02   -1.2566266944E-02   -1.2509487643E-02
   -1.2452962211E-02   -1.2396689538E-02   -1.2340668517E-02   -1.2284898045E-02
   -1.2229377026E-02   -1.2174104367E-02   -1.2119078978E-02   -1.2064299778E-02
   -1.2009765686E-02   -1.1955475628E-02   -1.1901428534E-02   -1.1847623339E-02
   -1.1794058981E-02   -1.1740734404E-02   -1.1687648555E-02   -1.1634800388E-02
   -1.1582188859E-02   -1.1529812928E-02   -1.1477671562E-02   -1.1425763730E-02
   -1.1374088407E-02   -1.1322644570E-02   -1.1271431204E-02   -1.1220447295E-02
   -1.1169691834E-02   -1.1119163818E-02   -1.1068862246E-02   -1.1018786122E-02
   -1.0968934455E-02   -1.0919306258E-02   -1.0869900546E-02   -1.0820716342E-02
   -1.0771752671E-02   -1.0723008561E-02   -1.0674483045E-02   -1.0626175162E-02
   -1.0578083953E-02   -1.0530208464E-02   -1.0482547744E-02   -1.0435100846E-02
   -1.0387866830E-02   -1.0340844755E-02   -1.0294033689E-02   -1.0247432700E-02
   -1.0201040863E-02   -1.0154857255E-02   -1.0108880958E-02   -1.0063111056E-02
   -1.0017546640E-02   -9.9721868022E-03   -9.9270306400E-03   -9.8820772544E-03
   -9.8373257501E-03   -9.7927752356E-03   -9.7484248234E-03   -9.7042736296E-03
   -9.6603207741E-03   -9.6165653808E-03   -9.5730065770E-03   -9.5296434938E-03
   -9.4864752664E-03   -9.4435010331E-03   -9.4007199363E-03   -9.3581311219E-03
   -9.3157337396E-03   -9.2735269426E-03   -9.2315098877E-03   -9.1896817355E-03
   -9.1480416500E-03   -9.1065887990E-03   -9.0653223535E-03   -9.0242414885E-03
   -8.9833453823E-03   -8.9426332166E-03   -8.9021041769E-03   -8.8617574520E-03
   -8.8215922343E-03   -8.7816077197E-03   -8.7418031072E-03   -8.7021775998E-03
   -8.6627304035E-03   -8.6234607278E-03   -8.5843677858E-03   -8.5454507938E-03
   -8.5067089714E-03   -8.4681415418E-03   -8.4297477313E-03   -8.3915267698E-03
   -8.3534778903E-03   -8.3156003291E-03   -8.2778933259E-03   -8.2403561237E-03
   -8.2029879687E-03   -8.1657881103E-03   -8.1287558012E-03   -8.0918902973E-03
   -8.0551908579E-03   -8.0186567451E-03   -7.9822872246E-03   -7.9460815649E-03
   -7.9100390381E-03   -7.8741589190E-03   -7.8384404858E-03   -7.8028830198E-03
   -7.7674858052E-03   -7.7322481297E-03   -7.6971692836E-03   -7.6622485607E-03
   -7.6274852575E-03   -7.5928786739E-03   -7.5584281125E-03   -7.5241328792E-03
   -7.4899922826E-03   -7.4560056347E-03   -7.4221722501E-03   -7.3884914465E-03
   -7.3549625447E-03   -7.3215848683E-03   -7.2883577438E-03   -7.2552805008E-03
   -7.2223524716E-03   -7.1895729916E-03   -7.1569413990E-03   -7.1244570347E-03
   -7.0921192428E-03   -7.0599273700E-03   -7.0278807660E-03   -6.9959787831E-03
   -6.9642207767E-03   -6.9326061048E-03   -6.9011341282E-03   -6.8698042107E-03
   -6.8386157185E-03   -6.8075680210E-03   -6.7766604900E-03   -6.7458925001E-03
   -6.7152634287E-03   -6.6847726560E-03   -6.6544195647E-03   -6.6242035403E-03
   -6.5941239709E-03   -6.5641802474E-03   -6.5343717632E-03   -6.5046979146E-03
   -6.4751581002E-03   -6.4457517214E-03   -6.4164781823E-03   -6.3873368895E-03
   -6.3583272521E-03   -6.3294486819E-03   -6.3007005933E-03   -6.2720824032E-03
   -6.2435935310E-03   -6.2152333987E-03   -6.1870014308E-03   -6.1588970544E-03
   -6.1309196991E-03   -6.1030687968E-03   -6.0753437820E-03   -6.0477440918E-03
   -6.0202691657E-03   -5.9929184455E-03   -5.9656913756E-03   -5.9385874027E-03
   -5.9116059762E-03   -5.8847465476E-03   -5.8580085710E-03   -5.8313915027E-03
   -5.8048948017E-03   -5.7785179290E-03   -5.7522603482E-03   -5.7261215253E-03
   -5.7001009284E-03   -5.6741980281E-03   -5.6484122973E-03   -5.6227432112E-03
   -5.5971902473E-03   -5.5717528855E-03   -5.5464306078E-03   -5.5212228986E-03
   -5.4961292445E-03   -5.4711491345E-03   -5.4462820595E-03   -5.4215275131E-03
   -5.3968849907E-03   -5.3723539903E-03   -5.3479340118E-03   -5.3236245574E-03
   -5.2994251316E-03   -5.2753352410E-03   -5.2513543943E-03   -5.2274821024E-03
   -5.2037178784E-03   -5.1800612376E-03   -5.1565116973E-03   -5.1330687769E-03
   -5.1097319981E-03   -5.0865008846E-03   -5.0633749621E-03   -5.0403537586E-03
   -5.0174368041E-03   -4.9946236305E-03   -4.9719137721E-03   -4.9493067649E-03
   -4.9268021471E-03   -4.9043994591E-03   -4.8820982431E-03   -4.8598980434E-03
   -4.8377984063E-03   -4.8157988800E-03   -4.7938990150E-03   -4.7720983634E-03
   -4.7503964796E-03   -4.7287929198E-03   -4.7072872422E-03   -4.6858790069E-03
   -4.6645677760E-03   -4.6433531136E-03   -4.6222345855E-03   -4.6012117597E-03
   -4.5802842059E-03   -4.5594514959E-03   -4.5387132031E-03   -4.5180689031E-03
   -4.4975181732E-03   -4.4770605927E-03   -4.4566957425E-03   -4.4364232056E-03
   -4.4162425668E-03   -4.3961534127E-03   -4.3761553317E-03   -4.3562479142E-03
   -4.3364307521E-03   -4.3167034394E-03   -4.2970655717E-03   -4.2775167465E-03
   -4.2580565631E-03   -4.2386846226E-03   -4.2194005276E-03   -4.2002038829E-03
   -4.1810942946E-03   -4.1620713710E-03   -4.1431347216E-03   -4.1242839582E-03
   -4.1055186940E-03   -4.0868385438E-03   -4.0682431245E-03   -4.0497320544E-03
   -4.0313049535E-03   -4.0129614436E-03   -3.9947011482E-03   -3.9765236924E-03
   -3.9584287029E-03   -3.9404158083E-03   -3.9224846384E-03   -3.9046348252E-03
   -3.8868660020E-03   -3.8691778037E-03   -3.8515698669E-03   -3.8340418300E-03
   -3.8165933327E-03   -3.7992240165E-03   -3.7819335244E-03   -3.7647215010E-03
   -3.7475875926E-03   -3.7305314469E-03   -3.7135527133E-03   -3.6966510426E-03
   -3.6798260873E-03   -3.6630775014E-03   -3.6464049405E-03   -3.6298080616E-03
   -3.6132865234E-03   -3.5968399859E-03   -3.5804681108E-03   -3.5641705612E-03
   -3.5479470019E-03   -3.5317970988E-03   -3.5157205197E-03   -3.4997169336E-03
   -3.4837860111E-03   -3.4679274243E-03   -3.4521408466E-03   -3.4364259531E-03
   -3.4207824202E-03   -3.4052099256E-03   -3.3897081488E-03   -3.3742767703E-03
   -3.3589154725E-03   -3.3436239387E-03   -3.3284018540E-03   -3.3132489049E-03
   -3.2981647789E-03   -3.2831491654E-03   -3.2682017549E-03   -3.2533222394E-03
   -3.2385103120E-03   -3.2237656676E-03   -3.2090880022E-03   -3.1944770132E-03
   -3.1799323993E-03   -3.1654538606E-03   -3.1510410987E-03   -3.1366938161E-03
   -3.1224117172E-03   -3.1081945072E-03   -3.0940418929E-03   -3.0799535825E-03
   -3.0659292851E-03   -3.0519687115E-03   -3.0380715737E-03   -3.0242375849E-03
   -3.0104664595E-03   -2.9967579134E-03   -2.9831116637E-03   -2.9695274286E-03
   -2.9560049278E-03   -2.9425438822E-03   -2.9291440137E-03   -2.9158050458E-03
   -2.9025267030E-03   -2.8893087111E-03   -2.8761507973E-03   -2.8630526896E-03
   -2.8500141176E-03   -2.8370348121E-03   -2.8241145047E-03   -2.8112529288E-03
   -2.7984498185E-03   -2.7857049093E-03   -2.7730179379E-03   -2.7603886421E-03
   -2.7478167610E-03   -2.7353020347E-03   -2.7228442045E-03   -2.7104430130E-03
   -2.6980982039E-03   -2.6858095219E-03   -2.6735767130E-03   -2.6613995243E-03
   -2.6492777040E-03   -2.6372110015E-03   -2.6251991672E-03   -2.6132419527E-03
   -2.6013391109E-03   -2.5894903954E-03   -2.5776955611E-03   -2.5659543642E-03
   -2.5542665618E-03   -2.5426319120E-03   -2.5310501741E-03   -2.5195211085E-03
   -2.5080444767E-03   -2.4966200412E-03   -2.4852475655E-03   -2.4739268144E-03
   -2.4626575534E-03   -2.4514395494E-03   -2.4402725702E-03   -2.4291563845E-03
   -2.4180907624E-03   -2.4070754747E-03   -2.3961102932E-03   -2.3851949912E-03
   -2.3743293424E-03   -2.3635131219E-03   -2.3527461057E-03   -2.3420280709E-03
   -2.3313587954E-03   -2.3207380583E-03   -2.3101656396E-03   -2.2996413203E-03
   -2.2891648823E-03   -2.2787361087E-03   -2.2683547834E-03   -2.2580206913E-03
   -2.2477336183E-03   -2.2374933511E-03   -2.2272996777E-03   -2.2171523868E-03
   -2.2070512681E-03   -2.1969961122E-03   -2.1869867107E-03   -2.1770228562E-03
   -2.1671043421E-03   -2.1572309628E-03   -2.1474025136E-03   -2.1376187908E-03
   -2.1278795915E-03   -2.1181847139E-03   -2.1085339567E-03   -2.0989271201E-03
   -2.0893640047E-03   -2.0798444122E-03   -2.0703681452E-03   -2.0609350072E-03
   -2.0515448024E-03   -2.0421973362E-03   -2.0328924146E-03   -2.0236298446E-03
   -2.0144094341E-03   -2.0052309918E-03   -1.9960943272E-03   -1.9869992508E-03
   -1.9779455738E-03   -1.9689331085E-03   -1.9599616677E-03   -1.9510310654E-03
   -1.9421411161E-03   -1.9332916354E-03   -1.9244824396E-03   -1.9157133459E-03
   -1.9069841722E-03   -1.8982947374E-03   -1.8896448610E-03   -1.8810343636E-03
   -1.8724630663E-03   -1.8639307912E-03   -1.8554373612E-03   -1.8469825999E-03
   -1.8385663317E-03   -1.8301883820E-03   -1.8218485766E-03   -1.8135467425E-03
   -1.8052827072E-03   -1.7970562991E-03   -1.7888673473E-03   -1.7807156818E-03
   -1.7726011332E-03   -1.7645235329E-03   -1.7564827133E-03   -1.7484785072E-03
   -1.7405107484E-03   -1.7325792713E-03   -1.7246839112E-03   -1.7168245040E-03
   -1.7090008864E-03   -1.7012128959E-03   -1.6934603706E-03   -1.6857431494E-03
   -1.6780610720E-03   -1.6704139786E-03   -1.6628017105E-03   -1.6552241093E-03
   -1.6476810176E-03   -1.6401722786E-03   -1.6326977363E-03   -1.6252572352E-03
   -1.6178506207E-03   -1.6104777388E-03   -1.6031384362E-03   -1.5958325604E-03
   -1.5885599595E-03   -1.5813204823E-03   -1.5741139782E-03   -1.5669402975E-03
   -1.5597992908E-03   -1.5526908099E-03   -1.5456147068E-03   -1.5385708343E-03
   -1.5315590461E-03   -1.5245791963E-03   -1.5176311396E-03   -1.5107147317E-03
   -1.5038298286E-03   -1.4969762872E-03   -1.4901539649E-03   -1.4833627197E-03
   -1.4766024105E-03   -1.4698728965E-03   -1.4631740379E-03   -1.4565056951E-03
   -1.4498677296E-03   -1.4432600031E-03   -1.4366823782E-03   -1.4301347181E-03
   -1.4236168865E-03   -1.4171287478E-03   -1.4106701670E-03   -1.4042410097E-03
   -1.3978411420E-03   -1.3914704309E-03   -1.3851287437E-03   -1.3788159484E-03
   -1.3725319137E-03   -1.3662765088E-03   -1.3600496035E-03   -1.3538510681E-03
   -1.3476807737E-03   -1.3415385917E-03   -1.3354243945E-03   -1.3293380546E-03
   -1.3232794453E-03   -1.3172484406E-03   -1.3112449150E-03   -1.3052687433E-03
   -1.2993198012E-03   -1.2933979648E-03   -1.2875031108E-03   -1.2816351165E-03
   -1.2757938597E-03   -1.2699792188E-03   -1.2641910727E-03   -1.2584293009E-03
   -1.2526937833E-03   -1.2469844005E-03   -1.2413010337E-03   -1.2356435645E-03
   -1.2300118750E-03   -1.2244058480E-03   -1.2188253666E-03   -1.2132703147E-03
   -1.2077405766E-03   -1.2022360371E-03   -1.1967565815E-03   -1.1913020957E-03
   -1.1858724660E-03   -1.1804675794E-03   -1.1750873232E-03   -1.1697315855E-03
   -1.1644002545E-03   -1.1590932193E-03   -1.1538103692E-03   -1.1485515943E-03
   -1.1433167849E-03   -1.1381058319E-03   -1.1329186269E-03   -1.1277550617E-03
   -1.1226150286E-03   -1.1174984207E-03   -1.1124051313E-03   -1.1073350543E-03
   -1.1022880840E-03   -1.0972641152E-03   -1.0922630432E-03   -1.0872847639E-03
   -1.0823291734E-03   -1.0773961685E-03   -1.0724856463E-03   -1.0675975046E-03
   -1.0627316414E-03   -1.0578879554E-03   -1.0530663455E-03   -1.0482667113E-03
   -1.0434889527E-03   -1.0387329702E-03   -1.0339986645E-03   -1.0292859371E-03
   -1.0245946896E-03   -1.0199248243E-03   -1.0152762438E-03   -1.0106488512E-03
   -1.0060425500E-03   -1.0014572443E-03   -9.9689283835E-04   -9.9234923705E-04
   -9.8782634567E-04   -9.8332406990E-04   -9.7884231588E-04   -9.7438099015E-04
   -9.6993999970E-04   -9.6551925191E-04   -9.6111865463E-04   -9.5673811607E-04
   -9.5237754491E-04   -9.4803685020E-04   -9.4371594143E-04   -9.3941472850E-04
   -9.3513312171E-04   -9.3087103177E-04   -9.2662836979E-04   -9.2240504729E-04
   -9.1820097620E-04   -9.1401606883E-04
   </PP_CHI.4>
 </PP_PSWFC>
 <PP_RHOATOM type="real"  size="1854" columns="4">
    0.0000000000E+00    3.5969699896E-03    1.4385895046E-02    3.2360800954E-02
    5.7511665917E-02    8.9824323609E-02    1.2928032789E-01    1.7585677964E-01
    2.2952611624E-01    2.9025586471E-01    3.5800835917E-01    4.3274042415E-01
    5.1440302503E-01    6.0294088749E-01    6.9829208791E-01    8.0038761725E-01
    9.0915092103E-01    1.0244974187E+00    1.1463340058E+00    1.2745585426E+00
    1.4090593342E+00    1.5497146062E+00    1.6963919807E+00    1.8489479591E+00
    2.0072274165E+00    2.1710631144E+00    2.3402752373E+00    2.5146709602E+00
    2.6940440535E+00    2.8781745324E+00    3.0668283558E+00    3.2597571843E+00
    3.4566982004E+00    3.6573739998E+00    3.8614925585E+00    4.0687472810E+00
    4.2788171359E+00    4.4913668814E+00    4.7060473871E+00    4.9224960531E+00
    5.1403373301E+00    5.3591833413E+00    5.5786346080E+00    5.7982808773E+00
    6.0177020520E+00    6.2364692206E+00    6.4541457830E+00    6.6702886708E+00
    6.8844496535E+00    7.0961767290E+00    7.3050155882E+00    7.5105111485E+00
    7.7122091465E+00    7.9096577819E+00    8.1024094022E+00    8.2900222184E+00
    8.4720620414E+00    8.6481040262E+00    8.8177344156E+00    8.9805522688E+00
    9.1361711650E+00    9.2842208705E+00    9.4243489564E+00    9.5562223573E+00
    9.6795288595E+00    9.7939785070E+00    9.8993049179E+00    9.9952664996E+00
    1.0081647555E+01    1.0158259270E+01    1.0224940583E+01    1.0281558916E+01
    1.0328010774E+01    1.0364222207E+01    1.0390149126E+01    1.0405777471E+01
    1.0411123243E+01    1.0406232373E+01    1.0391180461E+01    1.0366072362E+01
    1.0331041634E+01    1.0286249846E+01    1.0231885759E+01    1.0168164374E+01
    1.0095325867E+01    1.0013634401E+01    9.9233768464E+00    9.8248613917E+00
    9.7184160765E+00    9.6043872427E+00    9.4831379196E+00    9.3550461520E+00
    9.2205032812E+00    9.0799121913E+00    8.9336855301E+00    8.7822439160E+00
    8.6260141423E+00    8.4654273875E+00    8.3009174447E+00    8.1329189765E+00
    7.9618658090E+00    7.7881892698E+00    7.6123165817E+00    7.4346693183E+00
    7.2556619298E+00    7.0757003446E+00    6.8951806535E+00    6.7144878813E+00
    6.5339948502E+00    6.3540611394E+00    6.1750321427E+00    5.9972382268E+00
    5.8209939920E+00    5.6465976358E+00    5.4743304187E+00    5.3044562321E+00
    5.1372212674E+00    4.9728537821E+00    4.8115639637E+00    4.6535438843E+00
    4.4989675453E+00    4.3479910070E+00    4.2007525977E+00    4.0573731991E+00
    3.9179566017E+00    3.7825899250E+00    3.6513440978E+00    3.5242743911E+00
    3.4014210002E+00    3.2828096685E+00    3.1684523476E+00    3.0583478889E+00
    2.9524827611E+00    2.8508317902E+00    2.7533589099E+00    2.6600179207E+00
    2.5707532555E+00    2.4855007498E+00    2.4041884130E+00    2.3267371777E+00
    2.2530616410E+00    2.1830707915E+00    2.1166687159E+00    2.0537552828E+00
    1.9942268019E+00    1.9379766562E+00    1.8848959060E+00    1.8348738616E+00
    1.7877986247E+00    1.7435575976E+00    1.7020379586E+00    1.6631271042E+00
    1.6267130579E+00    1.5926848442E+00    1.5609328311E+00    1.5313490385E+00
    1.5038274153E+00    1.4782640853E+00    1.4545575629E+00    1.4326089398E+00
    1.4123220449E+00    1.3936035767E+00    1.3763632115E+00    1.3605136886E+00
    1.3459708725E+00    1.3326537961E+00    1.3204846839E+00    1.3093889589E+00
    1.2992952336E+00    1.2901352858E+00    1.2818440236E+00    1.2743594370E+00
    1.2676225409E+00    1.2615773090E+00    1.2561706003E+00    1.2513520796E+00
    1.2470741322E+00    1.2432917753E+00    1.2399625661E+00    1.2370465071E+00
    1.2345059504E+00    1.2323055014E+00    1.2304119220E+00    1.2287940344E+00
    1.2274226263E+00    1.2262703571E+00    1.2253116663E+00    1.2245226836E+00
    1.2238811422E+00    1.2233662940E+00    1.2229588285E+00    1.2226407934E+00
    1.2223955196E+00    1.2222075487E+00    1.2220625635E+00    1.2219473220E+00
    1.2218495940E+00    1.2217581016E+00    1.2216624618E+00    1.2215531325E+00
    1.2214213610E+00    1.2212591357E+00    1.2210591403E+00    1.2208147094E+00
    1.2205197886E+00    1.2201688947E+00    1.2197570797E+00    1.2192798956E+00
    1.2187333622E+00    1.2181139358E+00    1.2174184802E+00    1.2166442396E+00
    1.2157888117E+00    1.2148501241E+00    1.2138264107E+00    1.2127161898E+00
    1.2115182436E+00    1.2102315989E+00    1.2088555085E+00    1.2073894341E+00
    1.2058330298E+00    1.2041861270E+00    1.2024487200E+00    1.2006209520E+00
    1.1987031031E+00    1.1966955779E+00    1.1945988943E+00    1.1924136735E+00
    1.1901406300E+00    1.1877805628E+00    1.1853343467E+00    1.1828029249E+00
    1.1801873017E+00    1.1774885361E+00    1.1747077355E+00    1.1718460507E+00
    1.1689046702E+00    1.1658848167E+00    1.1627877421E+00    1.1596147244E+00
    1.1563670646E+00    1.1530460835E+00    1.1496531194E+00    1.1461895263E+00
    1.1426566714E+00    1.1390559334E+00    1.1353887015E+00    1.1316563730E+00
    1.1278603521E+00    1.1240020486E+00    1.1200828763E+00    1.1161042515E+00
    1.1120675922E+00    1.1079743165E+00    1.1038258418E+00    1.0996235832E+00
    1.0953689530E+00    1.0910633594E+00    1.0867082057E+00    1.0823048895E+00
    1.0778548016E+00    1.0733593255E+00    1.0688198367E+00    1.0642377015E+00
    1.0596142772E+00    1.0549509106E+00    1.0502489380E+00    1.0455096845E+00
    1.0407344634E+00    1.0359245758E+00    1.0310813104E+00    1.0262059425E+00
    1.0212997342E+00    1.0163639338E+00    1.0113997755E+00    1.0064084790E+00
    1.0013912496E+00    9.9634927734E-01    9.9128373733E-01    9.8619578927E-01
    9.8108657733E-01    9.7595722999E-01    9.7080885985E-01    9.6564256358E-01
    9.6045942175E-01    9.5526049875E-01    9.5004684272E-01    9.4481948550E-01
    9.3957944255E-01    9.3432771296E-01    9.2906527939E-01    9.2379310807E-01
    9.1851214882E-01    9.1322333506E-01    9.0792758382E-01    9.0262579580E-01
    8.9731885539E-01    8.9200763076E-01    8.8669297387E-01    8.8137572059E-01
    8.7605669076E-01    8.7073668828E-01    8.6541650120E-01    8.6009690181E-01
    8.5477864678E-01    8.4946247723E-01    8.4414911888E-01    8.3883928214E-01
    8.3353366227E-01    8.2823293950E-01    8.2293777915E-01    8.1764883178E-01
    8.1236673335E-01    8.0709210534E-01    8.0182555489E-01    7.9656767500E-01
    7.9131904464E-01    7.8608022892E-01    7.8085177925E-01    7.7563423352E-01
    7.7042811621E-01    7.6523393860E-01    7.6005219894E-01    7.5488338256E-01
    7.4972796211E-01    7.4458639768E-01    7.3945913697E-01    7.3434661548E-01
    7.2924925669E-01    7.2416747217E-01    7.1910166183E-01    7.1405221403E-01
    7.0901950577E-01    7.0400390287E-01    6.9900576014E-01    6.9402542150E-01
    6.8906322024E-01    6.8411947911E-01    6.7919451051E-01    6.7428861667E-01
    6.6940208980E-01    6.6453521229E-01    6.5968825681E-01    6.5486148653E-01
    6.5005515526E-01    6.4526950761E-01    6.4050477917E-01    6.3576119663E-01
    6.3103897798E-01    6.2633833263E-01    6.2165946160E-01    6.1700255764E-01
    6.1236780540E-01    6.0775538160E-01    6.0316545512E-01    5.9859818722E-01
    5.9405373164E-01    5.8953223476E-01    5.8503383573E-01    5.8055866665E-01
    5.7610685265E-01    5.7167851208E-01    5.6727375664E-01    5.6289269147E-01
    5.5853541535E-01    5.5420202079E-01    5.4989259416E-01    5.4560721586E-01
    5.4134596038E-01    5.3710889649E-01    5.3289608731E-01    5.2870759050E-01
    5.2454345830E-01    5.2040373770E-01    5.1628847055E-01    5.1219769368E-01
    5.0813143899E-01    5.0408973359E-01    5.0007259988E-01    4.9608005570E-01
    4.9211211440E-01    4.8816878497E-01    4.8425007213E-01    4.8035597643E-01
    4.7648649439E-01    4.7264161853E-01    4.6882133753E-01    4.6502563630E-01
    4.6125449606E-01    4.5750789448E-01    4.5378580572E-01    4.5008820056E-01
    4.4641504645E-01    4.4276630763E-01    4.3914194522E-01    4.3554191727E-01
    4.3196617887E-01    4.2841468221E-01    4.2488737669E-01    4.2138420898E-01
    4.1790512309E-01    4.1445006047E-01    4.1101896005E-01    4.0761175835E-01
    4.0422838953E-01    4.0086878546E-01    3.9753287581E-01    3.9422058808E-01
    3.9093184771E-01    3.8766657811E-01    3.8442470075E-01    3.8120613520E-01
    3.7801079922E-01    3.7483860879E-01    3.7168947819E-01    3.6856332005E-01
    3.6546004542E-01    3.6237956380E-01    3.5932178322E-01    3.5628661027E-01
    3.5327395019E-01    3.5028370689E-01    3.4731578299E-01    3.4437007991E-01
    3.4144649789E-01    3.3854493605E-01    3.3566529242E-01    3.3280746401E-01
    3.2997134683E-01    3.2715683596E-01    3.2436382555E-01    3.2159220893E-01
    3.1884187856E-01    3.1611272618E-01    3.1340464273E-01    3.1071751850E-01
    3.0805124308E-01    3.0540570545E-01    3.0278079399E-01    3.0017639652E-01
    2.9759240035E-01    2.9502869228E-01    2.9248515869E-01    2.8996168548E-01
    2.8745815821E-01    2.8497446205E-01    2.8251048183E-01    2.8006610209E-01
    2.7764120709E-01    2.7523568084E-01    2.7284940712E-01    2.7048226953E-01
    2.6813415148E-01    2.6580493626E-01    2.6349450701E-01    2.6120274681E-01
    2.5892953862E-01    2.5667476539E-01    2.5443831003E-01    2.5222005541E-01
    2.5001988446E-01    2.4783768012E-01    2.4567332539E-01    2.4352670332E-01
    2.4139769709E-01    2.3928618995E-01    2.3719206531E-01    2.3511520671E-01
    2.3305549784E-01    2.3101282257E-01    2.2898706500E-01    2.2697810938E-01
    2.2498584023E-01    2.2301014228E-01    2.2105090052E-01    2.1910800022E-01
    2.1718132691E-01    2.1527076642E-01    2.1337620487E-01    2.1149752872E-01
    2.0963462474E-01    2.0778738004E-01    2.0595568209E-01    2.0413941871E-01
    2.0233847809E-01    2.0055274882E-01    1.9878211985E-01    1.9702648055E-01
    1.9528572070E-01    1.9355973047E-01    1.9184840050E-01    1.9015162181E-01
    1.8846928591E-01    1.8680128472E-01    1.8514751064E-01    1.8350785652E-01
    1.8188221568E-01    1.8027048193E-01    1.7867254953E-01    1.7708831324E-01
    1.7551766834E-01    1.7396051057E-01    1.7241673618E-01    1.7088624195E-01
    1.6936892514E-01    1.6786468356E-01    1.6637341551E-01    1.6489501983E-01
    1.6342939589E-01    1.6197644359E-01    1.6053606337E-01    1.5910815619E-01
    1.5769262356E-01    1.5628936756E-01    1.5489829078E-01    1.5351929638E-01
    1.5215228807E-01    1.5079717011E-01    1.4945384731E-01    1.4812222505E-01
    1.4680220926E-01    1.4549370645E-01    1.4419662366E-01    1.4291086852E-01
    1.4163634921E-01    1.4037297448E-01    1.3912065366E-01    1.3787929662E-01
    1.3664881383E-01    1.3542911629E-01    1.3422011559E-01    1.3302172390E-01
    1.3183385394E-01    1.3065641901E-01    1.2948933297E-01    1.2833251025E-01
    1.2718586584E-01    1.2604931533E-01    1.2492277484E-01    1.2380616108E-01
    1.2269939131E-01    1.2160238336E-01    1.2051505564E-01    1.1943732710E-01
    1.1836911727E-01    1.1731034623E-01    1.1626093463E-01    1.1522080366E-01
    1.1418987509E-01    1.1316807124E-01    1.1215531498E-01    1.1115152973E-01
    1.1015663947E-01    1.0917056872E-01    1.0819324257E-01    1.0722458664E-01
    1.0626452708E-01    1.0531299062E-01    1.0436990450E-01    1.0343519652E-01
    1.0250879500E-01    1.0159062880E-01    1.0068062732E-01    9.9778720485E-02
    9.8884838757E-02    9.7998913116E-02    9.7120875068E-02    9.6250656642E-02
    9.5388190389E-02    9.4533409375E-02    9.3686247181E-02    9.2846637903E-02
    9.2014516145E-02    9.1189817022E-02    9.0372476151E-02    8.9562429654E-02
    8.8759614153E-02    8.7963966767E-02    8.7175425112E-02    8.6393927295E-02
    8.5619411915E-02    8.4851818056E-02    8.4091085289E-02    8.3337153667E-02
    8.2589963720E-02    8.1849456458E-02    8.1115573363E-02    8.0388256390E-02
    7.9667447961E-02    7.8953090965E-02    7.8245128754E-02    7.7543505139E-02
    7.6848164390E-02    7.6159051233E-02    7.5476110844E-02    7.4799288849E-02
    7.4128531320E-02    7.3463784774E-02    7.2804996167E-02    7.2152112894E-02
    7.1505082787E-02    7.0863854107E-02    7.0228375547E-02    6.9598596227E-02
    6.8974465690E-02    6.8355933899E-02    6.7742951239E-02    6.7135468506E-02
    6.6533436914E-02    6.5936808082E-02    6.5345534039E-02    6.4759567217E-02
    6.4178860451E-02    6.3603366973E-02    6.3033040412E-02    6.2467834791E-02
    6.1907704522E-02    6.1352604404E-02    6.0802489623E-02    6.0257315745E-02
    5.9717038717E-02    5.9181614861E-02    5.8651000875E-02    5.8125153826E-02
    5.7604031150E-02    5.7087590650E-02    5.6575790489E-02    5.6068589194E-02
    5.5565945646E-02    5.5067819083E-02    5.4574169095E-02    5.4084955622E-02
    5.3600138950E-02    5.3119679709E-02    5.2643538871E-02    5.2171677747E-02
    5.1704057986E-02    5.1240641568E-02    5.0781390807E-02    5.0326268344E-02
    4.9875237146E-02    4.9428260504E-02    4.8985302031E-02    4.8546325656E-02
    4.8111295626E-02    4.7680176502E-02    4.7252933155E-02    4.6829530764E-02
    4.6409934815E-02    4.5994111096E-02    4.5582025699E-02    4.5173645012E-02
    4.4768935721E-02    4.4367864807E-02    4.3970399539E-02    4.3576507478E-02
    4.3186156471E-02    4.2799314650E-02    4.2415950428E-02    4.2036032499E-02
    4.1659529835E-02    4.1286411683E-02    4.0916647561E-02    4.0550207260E-02
    4.0187060839E-02    3.9827178623E-02    3.9470531201E-02    3.9117089424E-02
    3.8766824403E-02    3.8419707506E-02    3.8075710356E-02    3.7734804832E-02
    3.7396963059E-02    3.7062157416E-02    3.6730360524E-02    3.6401545254E-02
    3.6075684716E-02    3.5752752262E-02    3.5432721482E-02    3.5115566203E-02
    3.4801260486E-02    3.4489778625E-02    3.4181095144E-02    3.3875184796E-02
    3.3572022562E-02    3.3271583645E-02    3.2973843473E-02    3.2678777692E-02
    3.2386362170E-02    3.2096572990E-02    3.1809386451E-02    3.1524779065E-02
    3.1242727556E-02    3.0963208856E-02    3.0686200107E-02    3.0411678654E-02
    3.0139622050E-02    2.9870008047E-02    2.9602814599E-02    2.9338019859E-02
    2.9075602176E-02    2.8815540096E-02    2.8557812358E-02    2.8302397893E-02
    2.8049275821E-02    2.7798425452E-02    2.7549826284E-02    2.7303457997E-02
    2.7059300457E-02    2.6817333713E-02    2.6577537993E-02    2.6339893702E-02
    2.6104381426E-02    2.5870981924E-02    2.5639676129E-02    2.5410445149E-02
    2.5183270261E-02    2.4958132912E-02    2.4735014717E-02    2.4513897458E-02
    2.4294763081E-02    2.4077593696E-02    2.3862371576E-02    2.3649079153E-02
    2.3437699019E-02    2.3228213925E-02    2.3020606776E-02    2.2814860633E-02
    2.2610958713E-02    2.2408884381E-02    2.2208621154E-02    2.2010152702E-02
    2.1813462838E-02    2.1618535525E-02    2.1425354870E-02    2.1233905127E-02
    2.1044170689E-02    2.0856136093E-02    2.0669786015E-02    2.0485105272E-02
    2.0302078816E-02    2.0120691737E-02    1.9940929262E-02    1.9762776749E-02
    1.9586219692E-02    1.9411243713E-02    1.9237834568E-02    1.9065978140E-02
    1.8895660441E-02    1.8726867610E-02    1.8559585912E-02    1.8393801736E-02
    1.8229501596E-02    1.8066672127E-02    1.7905300085E-02    1.7745372347E-02
    1.7586875910E-02    1.7429797888E-02    1.7274125511E-02    1.7119846127E-02
    1.6966947198E-02    1.6815416299E-02    1.6665241118E-02    1.6516409457E-02
    1.6368909226E-02    1.6222728445E-02    1.6077855244E-02    1.5934277860E-02
    1.5791984637E-02    1.5650964024E-02    1.5511204576E-02    1.5372694951E-02
    1.5235423911E-02    1.5099380319E-02    1.4964553138E-02    1.4830931434E-02
    1.4698504370E-02    1.4567261206E-02    1.4437191304E-02    1.4308284118E-02
    1.4180529201E-02    1.4053916198E-02    1.3928434849E-02    1.3804074987E-02
    1.3680826539E-02    1.3558679519E-02    1.3437624036E-02    1.3317650286E-02
    1.3198748555E-02    1.3080909216E-02    1.2964122731E-02    1.2848379647E-02
    1.2733670597E-02    1.2619986299E-02    1.2507317556E-02    1.2395655251E-02
    1.2284990353E-02    1.2175313913E-02    1.2066617060E-02    1.1958891006E-02
    1.1852127042E-02    1.1746316537E-02    1.1641450939E-02    1.1537521773E-02
    1.1434520641E-02    1.1332439220E-02    1.1231269264E-02    1.1131002601E-02
    1.1031631131E-02    1.0933146831E-02    1.0835541748E-02    1.0738808001E-02
    1.0642937781E-02    1.0547923350E-02    1.0453757038E-02    1.0360431247E-02
    1.0267938445E-02    1.0176271171E-02    1.0085422030E-02    9.9953836923E-03
    9.9061488971E-03    9.8177104476E-03    9.7300612125E-03    9.6431941247E-03
    9.5571021811E-03    9.4717784415E-03    9.3872160291E-03    9.3034081286E-03
    9.2203479866E-03    9.1380289104E-03    9.0564442677E-03    8.9755874863E-03
    8.8954520530E-03    8.8160315136E-03    8.7373194718E-03    8.6593095892E-03
    8.5819955848E-03    8.5053712340E-03    8.4294303686E-03    8.3541668757E-03
    8.2795746975E-03    8.2056478311E-03    8.1323803275E-03    8.0597662912E-03
    7.9877998799E-03    7.9164753039E-03    7.8457868260E-03    7.7757287604E-03
    7.7062954727E-03    7.6374813790E-03    7.5692809458E-03    7.5016886893E-03
    7.4346991754E-03    7.3683070184E-03    7.3025068815E-03    7.2372934754E-03
    7.1726615592E-03    7.1086059386E-03    7.0451214663E-03    6.9822030411E-03
    6.9198456077E-03    6.8580441564E-03    6.7967937224E-03    6.7360893855E-03
    6.6759262698E-03    6.6162995430E-03    6.5572044168E-03    6.4986361455E-03
    6.4405900263E-03    6.3830613984E-03    6.3260456430E-03    6.2695381827E-03
    6.2135344813E-03    6.1580300432E-03    6.1030204135E-03    6.0485011765E-03
    5.9944679571E-03    5.9409164190E-03    5.8878422650E-03    5.8352412363E-03
    5.7831091123E-03    5.7314417105E-03    5.6802348856E-03    5.6294845297E-03
    5.5791865717E-03    5.5293369769E-03    5.4799317466E-03    5.4309669185E-03
    5.3824385656E-03    5.3343427960E-03    5.2866757527E-03    5.2394336134E-03
    5.1926125898E-03    5.1462089278E-03    5.1002189068E-03    5.0546388394E-03
    5.0094650714E-03    4.9646939812E-03    4.9203219798E-03    4.8763455105E-03
    4.8327610481E-03    4.7895650991E-03    4.7467542012E-03    4.7043249231E-03
    4.6622738644E-03    4.6205976549E-03    4.5792929545E-03    4.5383564531E-03
    4.4977848702E-03    4.4575749548E-03    4.4177234849E-03    4.3782272672E-03
    4.3390831371E-03    4.3002879582E-03    4.2618386221E-03    4.2237320483E-03
    4.1859651838E-03    4.1485350028E-03    4.1114385064E-03    4.0746727229E-03
    4.0382347071E-03    4.0021215399E-03    3.9663303284E-03    3.9308582055E-03
    3.8957023297E-03    3.8608598850E-03    3.8263280804E-03    3.7921041498E-03
    3.7581853519E-03    3.7245689697E-03    3.6912523106E-03    3.6582327064E-03
    3.6255075120E-03    3.5930741066E-03    3.5609298922E-03    3.5290722944E-03
    3.4974987616E-03    3.4662067650E-03    3.4351937982E-03    3.4044573775E-03
    3.3739950408E-03    3.3438043486E-03    3.3138828828E-03    3.2842282470E-03
    3.2548380662E-03    3.2257099864E-03    3.1968416748E-03    3.1682308192E-03
    3.1398751281E-03    3.1117723305E-03    3.0839201754E-03    3.0563164321E-03
    3.0289588896E-03    3.0018453568E-03    2.9749736622E-03    2.9483416534E-03
    2.9219471973E-03    2.8957881798E-03    2.8698625056E-03    2.8441680980E-03
    2.8187028990E-03    2.7934648688E-03    2.7684519857E-03    2.7436622458E-03
    2.7190936637E-03    2.6947442713E-03    2.6706121179E-03    2.6466952705E-03
    2.6229918129E-03    2.5994998464E-03    2.5762174888E-03    2.5531428749E-03
    2.5302741561E-03    2.5076095001E-03    2.4851470909E-03    2.4628851288E-03
    2.4408218301E-03    2.4189554271E-03    2.3972841675E-03    2.3758063150E-03
    2.3545201484E-03    2.3334239619E-03    2.3125160649E-03    2.2917947820E-03
    2.2712584525E-03    2.2509054305E-03    2.2307340845E-03    2.2107427981E-03
    2.1909299689E-03    2.1712940089E-03    2.1518333440E-03    2.1325464144E-03
    2.1134316739E-03    2.0944875902E-03    2.0757126446E-03    2.0571053319E-03
    2.0386641602E-03    2.0203876509E-03    2.0022743385E-03    1.9843227708E-03
    1.9665315082E-03    1.9488991242E-03    1.9314242046E-03    1.9141053482E-03
    1.8969411659E-03    1.8799302810E-03    1.8630713293E-03    1.8463629585E-03
    1.8298038282E-03    1.8133926101E-03    1.7971279877E-03    1.7810086561E-03
    1.7650333223E-03    1.7492007044E-03    1.7335095321E-03    1.7179585464E-03
    1.7025464993E-03    1.6872721542E-03    1.6721342852E-03    1.6571316774E-03
    1.6422631267E-03    1.6275274397E-03    1.6129234334E-03    1.5984499357E-03
    1.5841057847E-03    1.5698898289E-03    1.5558009269E-03    1.5418379476E-03
    1.5279997698E-03    1.5142852824E-03    1.5006933839E-03    1.4872229830E-03
    1.4738729978E-03    1.4606423560E-03    1.4475299949E-03    1.4345348612E-03
    1.4216559111E-03    1.4088921101E-03    1.3962424325E-03    1.3837058623E-03
    1.3712813919E-03    1.3589680232E-03    1.3467647665E-03    1.3346706413E-03
    1.3226846755E-03    1.3108059057E-03    1.2990333771E-03    1.2873661434E-03
    1.2758032667E-03    1.2643438175E-03    1.2529868745E-03    1.2417315244E-03
    1.2305768623E-03    1.2195219912E-03    1.2085660220E-03    1.1977080737E-03
    1.1869472729E-03    1.1762827541E-03    1.1657136593E-03    1.1552391383E-03
    1.1448583485E-03    1.1345704546E-03    1.1243746289E-03    1.1142700510E-03
    1.1042559077E-03    1.0943313930E-03    1.0844957083E-03    1.0747480618E-03
    1.0650876689E-03    1.0555137519E-03    1.0460255401E-03    1.0366222695E-03
    1.0273031829E-03    1.0180675299E-03    1.0089145669E-03    9.9984355667E-04
    9.9085376868E-04    9.8194447879E-04    9.7311496935E-04    9.6436452906E-04
    9.5569245294E-04    9.4709804228E-04    9.3858060455E-04    9.3013945342E-04
    9.2177390857E-04    9.1348329573E-04    9.0526694676E-04    8.9712419938E-04
    8.8905439718E-04    8.8105688959E-04    8.7313103180E-04    8.6527618475E-04
    8.5749171504E-04    8.4977699492E-04    8.4213140218E-04    8.3455432018E-04
    8.2704513773E-04    8.1960324904E-04    8.1222805369E-04    8.0491895672E-04
    7.9767536841E-04    7.9049670423E-04    7.8338238488E-04    7.7633183620E-04
    7.6934448912E-04    7.6241977963E-04    7.5555714874E-04    7.4875604242E-04
    7.4201591157E-04    7.3533621195E-04    7.2871640418E-04    7.2215595355E-04
    7.1565433034E-04    7.0921100940E-04    7.0282547028E-04    6.9649719714E-04
    6.9022567872E-04    6.8401040832E-04    6.7785088372E-04    6.7174660719E-04
    6.6569708539E-04    6.5970182941E-04    6.5376035466E-04    6.4787218084E-04
    6.4203683188E-04    6.3625383605E-04    6.3052272580E-04    6.2484303770E-04
    6.1921431245E-04    6.1363609484E-04    6.0810793368E-04    6.0262938183E-04
    5.9719999609E-04    5.9181933722E-04    5.8648696988E-04    5.8120246261E-04
    5.7596538778E-04    5.7077532153E-04    5.6563184376E-04    5.6053453822E-04
    5.5548299230E-04    5.5047679706E-04    5.4551554718E-04    5.4059884097E-04
    5.3572628029E-04    5.3089747055E-04    5.2611202068E-04    5.2136954308E-04
    5.1666965360E-04    5.1201197150E-04    5.0739611943E-04    5.0282172336E-04
    4.9828841264E-04    4.9379581994E-04    4.8934358119E-04    4.8493133552E-04
    4.8055872530E-04    4.7622539607E-04    4.7193099653E-04    4.6767517850E-04
    4.6345759690E-04    4.5927790973E-04    4.5513577803E-04    4.5103086585E-04
    4.4696284023E-04    4.4293137111E-04    4.3893613151E-04    4.3497679729E-04
    4.3105304720E-04    4.2716456285E-04    4.2331102869E-04    4.1949213196E-04
    4.1570756270E-04    4.1195701372E-04    4.0824018053E-04    4.0455676139E-04
    4.0090645723E-04    3.9728897163E-04    3.9370401084E-04    3.9015128363E-04
    3.8663050152E-04    3.8314137852E-04    3.7968363121E-04    3.7625697867E-04
    3.7286114250E-04    3.6949584676E-04    3.6616081800E-04    3.6285578517E-04
    3.5958047966E-04    3.5633463524E-04    3.5311798807E-04    3.4993027664E-04
    3.4677124178E-04    3.4364062657E-04    3.4053817648E-04    3.3746363923E-04
    3.3441676477E-04    3.3139730527E-04    3.2840501513E-04    3.2543965092E-04
    3.2250097138E-04    3.1958873741E-04    3.1670271205E-04    3.1384266042E-04
    3.1100834978E-04    3.0819954942E-04    3.0541603072E-04    3.0265756704E-04
    2.9992393382E-04    2.9721490852E-04    2.9453027057E-04    2.9186980133E-04
    2.8923328416E-04    2.8662050432E-04    2.8403124898E-04    2.8146530724E-04
    2.7892247006E-04    2.7640253026E-04    2.7390528252E-04    2.7143052335E-04
    2.6897805107E-04    2.6654766580E-04    2.6413916940E-04    2.6175236559E-04
    2.5938705980E-04    2.5704305921E-04    2.5472017270E-04    2.5241821087E-04
    2.5013698598E-04    2.4787631202E-04    2.4563600459E-04    2.4341588096E-04
    2.4121576002E-04    2.3903546230E-04    2.3687480990E-04    2.3473362654E-04
    2.3261173746E-04    2.3050896949E-04    2.2842515106E-04    2.2636011208E-04
    2.2431368401E-04    2.2228569977E-04    2.2027599380E-04    2.1828440204E-04
    2.1631076184E-04    2.1435491205E-04    2.1241669295E-04    2.1049594623E-04
    2.0859251500E-04    2.0670624379E-04    2.0483697850E-04    2.0298456639E-04
    2.0114885609E-04    1.9932969765E-04    1.9752694241E-04    1.9574044303E-04
    1.9397005351E-04    1.9221562913E-04    1.9047702650E-04    1.8875410346E-04
    1.8704671917E-04    1.8535473403E-04    1.8367800967E-04    1.8201640898E-04
    1.8036979608E-04    1.7873803628E-04    1.7712099609E-04    1.7551854324E-04
    1.7393054665E-04    1.7235687640E-04    1.7079740374E-04    1.6925200107E-04
    1.6772054191E-04    1.6620290093E-04    1.6469895392E-04    1.6320857778E-04
    1.6173165050E-04    1.6026805119E-04    1.5881766001E-04    1.5738035820E-04
    1.5595602808E-04    1.5454455300E-04    1.5314581733E-04    1.5175970655E-04
    1.5038610713E-04    1.4902490655E-04    1.4767599330E-04    1.4633925688E-04
    1.4501458775E-04    1.4370187737E-04    1.4240101818E-04    1.4111190356E-04
    1.3983442787E-04    1.3856848639E-04    1.3731397536E-04    1.3607079193E-04
    1.3483883420E-04    1.3361800110E-04    1.3240819257E-04    1.3120930942E-04
    1.3002125333E-04    1.2884392686E-04    1.2767723346E-04    1.2652107743E-04
    1.2537536392E-04    1.2423999895E-04    1.2311488937E-04    1.2199994287E-04
    1.2089506795E-04    1.1980017396E-04    1.1871517104E-04    1.1763997014E-04
    1.1657448300E-04    1.1551862214E-04    1.1447230092E-04    1.1343543344E-04
    1.1240793457E-04    1.1138971996E-04    1.1038070598E-04    1.0938080978E-04
    1.0838994925E-04    1.0740804301E-04    1.0643501041E-04    1.0547077151E-04
    1.0451524712E-04    1.0356835873E-04    1.0263002855E-04    1.0170017947E-04
    1.0077873507E-04    9.9865619645E-05    9.8960758157E-05    9.8064076242E-05
    9.7175500201E-05    9.6294956995E-05    9.5422374240E-05    9.4557680202E-05
    9.3700803789E-05    9.2851674549E-05    9.2010222662E-05    9.1176378933E-05
    9.0350074788E-05    8.9531242271E-05    8.8719814032E-05    8.7915723329E-05
    8.7118903993E-05    8.6329290486E-05    8.5546817859E-05    8.4771421733E-05
    8.4003038310E-05    8.3241604361E-05    8.2487057228E-05    8.1739334812E-05
    8.0998375576E-05    8.0264118532E-05    7.9536503240E-05    7.8815469805E-05
    7.8100958868E-05    7.7392911603E-05    7.6691269714E-05    7.5995975426E-05
    7.5306971467E-05    7.4624201101E-05    7.3947608112E-05    7.3277136778E-05
    7.2612731873E-05    7.1954338671E-05    7.1301902935E-05    7.0655370917E-05
    7.0014689351E-05    6.9379805452E-05    6.8750666905E-05    6.8127221868E-05
    6.7509418966E-05    6.6897207282E-05    6.6290536361E-05    6.5689356198E-05
    6.5093617230E-05    6.4503270336E-05    6.3918266870E-05    6.3338558604E-05
    6.2764097744E-05    6.2194836922E-05    6.1630729201E-05    6.1071728062E-05
    6.0517787405E-05    5.9968861547E-05    5.9424905213E-05    5.8885873537E-05
    5.8351722055E-05    5.7822406704E-05    5.7297883817E-05    5.6778110119E-05
    5.6263042725E-05    5.5752639116E-05    5.5246857188E-05    5.4745655211E-05
    5.4248991824E-05    5.3756826038E-05    5.3269117230E-05    5.2785825147E-05
    5.2306909895E-05    5.1832331940E-05    5.1362052104E-05    5.0896031560E-05
    5.0434231834E-05    4.9976614793E-05    4.9523142653E-05    4.9073777966E-05
    4.8628483622E-05    4.8187222844E-05    4.7749959165E-05    4.7316656493E-05
    4.6887279037E-05    4.6461791330E-05    4.6040158222E-05    4.5622344880E-05
    4.5208316787E-05    4.4798039733E-05    4.4391479818E-05    4.3988603449E-05
    4.3589377333E-05    4.3193768476E-05    4.2801744185E-05    4.2413272058E-05
    4.2028319987E-05    4.1646856151E-05    4.1268849014E-05    4.0894267311E-05
    4.0523080094E-05    4.0155256676E-05    3.9790766645E-05    3.9429579863E-05
    3.9071666466E-05    3.8716996857E-05    3.8365541705E-05    3.8017271944E-05
    3.7672158771E-05    3.7330173642E-05    3.6991288269E-05    3.6655474621E-05
    3.6322704918E-05    3.5992951630E-05    3.5666187478E-05    3.5342385425E-05
    3.5021518659E-05    3.4703560653E-05    3.4388485096E-05    3.4076265917E-05
    3.3766877276E-05    3.3460293570E-05    3.3156489425E-05    3.2855439695E-05
    3.2557119464E-05    3.2261504036E-05    3.1968568942E-05    3.1678289931E-05
    3.1390642971E-05    3.1105604248E-05    3.0823150162E-05    3.0543257326E-05
    3.0265902563E-05    2.9991062891E-05    2.9718715561E-05    2.9448838023E-05
    2.9181407927E-05    2.8916403124E-05    2.8653801665E-05    2.8393581797E-05
    2.8135721968E-05    2.7880200815E-05    2.7626997173E-05    2.7376090062E-05
    2.7127458698E-05    2.6881082479E-05    2.6636940991E-05    2.6395014006E-05
    2.6155281475E-05    2.5917723533E-05    2.5682320489E-05    2.5449052824E-05
    2.5217901218E-05    2.4988846513E-05    2.4761869726E-05    2.4536952041E-05
    2.4314074815E-05    2.4093219573E-05    2.3874368005E-05    2.3657501968E-05
    2.3442603483E-05    2.3229654731E-05    2.3018638057E-05    2.2809535964E-05
    2.2602331111E-05    2.2397006318E-05    2.2193544556E-05    2.1991928952E-05
    2.1792142777E-05    2.1594169460E-05    2.1397992590E-05    2.1203595895E-05
    2.1010963250E-05    2.0820078676E-05    2.0630926339E-05    2.0443490546E-05
    2.0257755748E-05    2.0073706535E-05    1.9891327637E-05    1.9710603922E-05
    1.9531520394E-05    1.9354062192E-05    1.9178214592E-05    1.9003963000E-05
    1.8831292955E-05    1.8660190127E-05    1.8490640307E-05    1.8322629425E-05
    1.8156143541E-05    1.7991168837E-05    1.7827691619E-05    1.7665698318E-05
    1.7505175485E-05    1.7346109794E-05    1.7188488040E-05    1.7032297137E-05
    1.6877524117E-05    1.6724156129E-05    1.6572180439E-05    1.6421584428E-05
    1.6272355589E-05    1.6124481531E-05    1.5977949974E-05    1.5832748748E-05
    1.5688865790E-05    1.5546289145E-05    1.5405006981E-05    1.5265007562E-05
    1.5126279261E-05    1.4988810554E-05    1.4852590022E-05    1.4717606350E-05
    1.4583848322E-05    1.4451304828E-05    1.4319964856E-05    1.4189817494E-05
    1.4060851928E-05    1.3933057443E-05    1.3806423421E-05    1.3680939338E-05
    1.3556594768E-05    1.3433379377E-05    1.3311282926E-05    1.3190295256E-05
    1.3070406323E-05    1.2951606165E-05    1.2833884907E-05    1.2717232765E-05
    1.2601640043E-05    1.2487097134E-05    1.2373594515E-05    1.2261122752E-05
    1.2149672496E-05    1.2039234481E-05    1.1929799526E-05    1.1821358533E-05
    1.1713902486E-05    1.1607422451E-05    1.1501909575E-05    1.1397355084E-05
    1.1293750285E-05    1.1191086558E-05    1.1089355364E-05    1.0988548250E-05
    1.0888656832E-05    1.0789672805E-05    1.0691587935E-05    1.0594394066E-05
    1.0498083113E-05    1.0402647067E-05    1.0308077990E-05    1.0214368016E-05
    1.0121509349E-05    1.0029494266E-05    9.9383151126E-06    9.8479643037E-06
    9.7584343231E-06    9.6697177223E-06    9.5818071208E-06    9.4946952046E-06
    9.4083747204E-06    9.3228384872E-06    9.2380793926E-06    9.1540903844E-06
    9.0708644741E-06    8.9883947365E-06    8.9066743092E-06    8.8256963917E-06
    8.7454542455E-06    8.6659411929E-06    8.5871506166E-06    8.5090759594E-06
    8.4317107234E-06    8.3550484696E-06    8.2790828174E-06    8.2038074438E-06
    8.1292160833E-06    8.0553025271E-06    7.9820606224E-06    7.9094842681E-06
    7.8375674223E-06    7.7663041032E-06    7.6956883781E-06    7.6257143685E-06
    7.5563762490E-06    7.4876682468E-06    7.4195846418E-06    7.3521197655E-06
    7.2852680007E-06    7.2190237812E-06    7.1533815913E-06    7.0883359651E-06
    7.0238814865E-06    6.9600127881E-06    6.8967245516E-06    6.8340115065E-06
    6.7718684303E-06    6.7102901478E-06    6.6492715288E-06    6.5888074869E-06
    6.5288929928E-06    6.4695230567E-06    6.4106927337E-06    6.3523971240E-06
    6.2946313721E-06    6.2373906665E-06    6.1806702393E-06    6.1244653661E-06
    6.0687713648E-06    6.0135835962E-06    5.9588974631E-06    5.9047084096E-06
    5.8510119216E-06    5.7978035257E-06    5.7450787889E-06    5.6928333188E-06
    5.6410627623E-06    5.5897628062E-06    5.5389291711E-06    5.4885576246E-06
    5.4386439719E-06    5.3891840541E-06    5.3401737502E-06    5.2916089762E-06
    5.2434856856E-06    5.1957998682E-06    5.1485475504E-06    5.1017247946E-06
    5.0553276988E-06    5.0093523964E-06    4.9637950561E-06    4.9186518811E-06
    4.8739191090E-06    4.8295930118E-06    4.7856698950E-06    4.7421460978E-06
    4.6990179926E-06    4.6562819846E-06    4.6139345055E-06    4.5719720315E-06
    4.5303910651E-06    4.4891881406E-06    4.4483598234E-06    4.4079027101E-06
    4.3678134284E-06    4.3280886363E-06    4.2887250224E-06    4.2497193050E-06
    4.2110682326E-06    4.1727685829E-06    4.1348171628E-06    4.0972108083E-06
    4.0599463842E-06    4.0230207835E-06    3.9864309276E-06    3.9501737657E-06
    3.9142462747E-06    3.8786454590E-06    3.8433683444E-06    3.8084119951E-06
    3.7737734965E-06    3.7394499604E-06    3.7054385246E-06    3.6717363531E-06
    3.6383406356E-06    3.6052485873E-06    3.5724574486E-06    3.5399644849E-06
    3.5077669867E-06    3.4758622687E-06    3.4442476703E-06    3.4129205548E-06
    3.3818783096E-06    3.3511183457E-06    3.3206380977E-06    3.2904350234E-06
    3.2605066037E-06    3.2308503424E-06    3.2014637620E-06    3.1723444140E-06
    3.1434898710E-06    3.1148977263E-06    3.0865655949E-06    3.0584911138E-06
    3.0306719410E-06    3.0031057561E-06    2.9757902597E-06    2.9487231732E-06
    2.9219022387E-06    2.8953252188E-06    2.8689898965E-06    2.8428940748E-06
    2.8170355767E-06    2.7914122449E-06    2.7660219418E-06    2.7408625492E-06
    2.7159319681E-06    2.6912281184E-06    2.6667489377E-06    2.6424923819E-06
    2.6184564304E-06    2.5946390778E-06    2.5710383371E-06    2.5476522392E-06
    2.5244788328E-06    2.5015161845E-06    2.4787623782E-06    2.4562155156E-06
    2.4338737152E-06    2.4117351129E-06    2.3897978614E-06    2.3680601301E-06
    2.3465201052E-06    2.3251759893E-06    2.3040260012E-06    2.2830683760E-06
    2.2623013649E-06    2.2417232348E-06    2.2213322685E-06    2.2011267618E-06
    2.1811050293E-06    2.1612654018E-06    2.1416062238E-06    2.1221258545E-06
    2.1028226683E-06    2.0836950543E-06    2.0647414160E-06    2.0459601718E-06
    2.0273497542E-06    2.0089086099E-06    1.9906351999E-06    1.9725279990E-06
    1.9545854960E-06    1.9368061933E-06    1.9191886070E-06    1.9017312666E-06
    1.8844327150E-06    1.8672915084E-06    1.8503062160E-06    1.8334754201E-06
    1.8167977134E-06    1.8002717048E-06    1.7838960164E-06    1.7676692811E-06
    1.7515901446E-06    1.7356572648E-06    1.7198693116E-06    1.7042249673E-06
    1.6887229258E-06    1.6733618933E-06    1.6581405874E-06    1.6430577376E-06
    1.6281120846E-06    1.6133023809E-06    1.5986273903E-06    1.5840858875E-06
    1.5696766587E-06    1.5553985009E-06    1.5412502222E-06    1.5272306415E-06
    1.5133385882E-06    1.4995729012E-06    1.4859324309E-06    1.4724160403E-06
    1.4590226009E-06    1.4457509948E-06    1.4326001139E-06    1.4195688602E-06
    1.4066561458E-06    1.3938608928E-06    1.3811820327E-06    1.3686185072E-06
    1.3561692672E-06    1.3438332733E-06    1.3316094957E-06    1.3194969136E-06
    1.3074945158E-06    1.2956013002E-06    1.2838162737E-06    1.2721384523E-06
    1.2605668610E-06    1.2491005336E-06    1.2377385126E-06    1.2264798466E-06
    1.2153235982E-06    1.2042688360E-06    1.1933146369E-06    1.1824600863E-06
    1.1717042779E-06    1.1610463136E-06    1.1504853035E-06    1.1400203657E-06
    1.1296506264E-06    1.1193752197E-06    1.1091932876E-06    1.0991039799E-06
    1.0891064541E-06    1.0791998754E-06    1.0693834165E-06    1.0596562577E-06
    1.0500175867E-06    1.0404665986E-06    1.0310024959E-06    1.0216244883E-06
    1.0123317919E-06    1.0031236294E-06    9.9399923390E-07    9.8495784338E-07
    9.7599870284E-07    9.6712106414E-07    9.5832418593E-07    9.4960733361E-07
    9.4096977924E-07    9.3241080152E-07    9.2392968569E-07    9.1552572350E-07
    9.0719821312E-07    8.9894645911E-07    8.9076977236E-07    8.8266747002E-07
    8.7463887542E-07    8.6668331809E-07    8.5880013361E-07    8.5098866363E-07
    8.4324825576E-07    8.3557826356E-07
 </PP_RHOATOM>
</UPF>
